#=======================================================
# FHI-aims file: geometry.in.04500
# Created using the Atomic Simulation Environment (ASE)
# Sun Jun  2 23:51:43 2024

# Additional information:
# Sample no.:    4500
#=======================================================
lattice_vector 16.2077692186739988 0.0000000000000000 0.0000000000000000 
lattice_vector 0.0000000000000000 16.2077692186739988 0.0000000000000000 
lattice_vector 0.0000000000000000 0.0000000000000000 16.2077692186739988 
atom_frac -0.0090072201493374 -0.0272825424148851 0.0106264204524057 Ar
    velocity -0.5067774801068854 1.3700840312382139 1.3153503943023102
atom_frac -0.0112522181483404 0.1639330037464462 0.1702628708524712 Ar
    velocity -1.3194520031362214 -0.8753246096981213 0.1343068496428836
atom_frac 0.0072260632043124 0.3211772880709207 0.3478828300941011 Ar
    velocity 2.0252149812548441 -0.5131397729473363 -0.7678695509500293
atom_frac -0.0035620122556321 0.5086905077366399 0.5002182875823709 Ar
    velocity 0.1232659344196795 0.7668620886836520 -0.8424011014962124
atom_frac 0.0123675379013062 0.6678817123855810 0.6620703423682266 Ar
    velocity -0.0185457445939298 0.7266552775380509 -0.0779224607824195
atom_frac -0.0009047844586832 0.8143953360500088 0.8262906991797950 Ar
    velocity 0.5127195412403504 -1.0632851917566168 -1.1171477204985996
atom_frac 0.1496949040606697 -0.0014234961337632 0.1590836984346829 Ar
    velocity 1.9424860399114223 -0.7061858174576793 1.2394179294679806
atom_frac 0.1524248301214518 0.1710842995719289 0.3418904916417830 Ar
    velocity 0.1800091933034166 -1.1400458681750907 -1.5837633177681658
atom_frac 0.1706333340629816 0.3054275902720804 0.5114957240920409 Ar
    velocity -0.8175288310000456 -0.4580131610083643 -2.3144441756843426
atom_frac 0.1693916519205339 0.4935079487848545 0.6545430239001345 Ar
    velocity -0.5867579307081328 0.0273741560347419 2.8732925384350279
atom_frac 0.1692161933932152 0.6580452791263997 0.8238535972031894 Ar
    velocity 1.8070796142548300 -0.2295750747351507 -0.2125710894806892
atom_frac 0.1627065197445074 0.8385787501108223 -0.0074480453248651 Ar
    velocity -0.2735087112063261 2.4804222094986699 -0.1240128365089876
atom_frac 0.3314574033651445 0.0083155156425920 0.3290547072354271 Ar
    velocity 0.6934609345278453 -1.6467052795528294 -1.7758419244546468
atom_frac 0.3361307518838524 0.1559886795688914 0.4997786731552529 Ar
    velocity -1.9506221899439962 0.5896022972225498 0.7069713568199142
atom_frac 0.3290404850876115 0.3385711759395854 0.6612954701300269 Ar
    velocity 0.9403667261028111 0.1774654887121949 0.5828421445764248
atom_frac 0.3488830453095346 0.5204553606622896 0.8399054498389950 Ar
    velocity -0.4077389363073660 -0.9115733792998577 0.4454361894702361
atom_frac 0.3337682046276401 0.6784508940121265 -0.0027306679039996 Ar
    velocity 0.9966552604050114 0.6636255691712559 -0.0513393058126757
atom_frac 0.3351123106331322 0.8386795609401508 0.1631932858369799 Ar
    velocity -0.4195861517924261 0.5857090053805704 -0.7461216474071051
atom_frac 0.5051368338796831 0.0055819109613933 0.5077296724400738 Ar
    velocity -0.0526415743806363 0.9859636838615713 1.3803395391310584
atom_frac 0.4932707633585788 0.1747988447961541 0.6649313314567049 Ar
    velocity 0.6117639849412517 -0.1014712261246888 -0.1213518551766417
atom_frac 0.4965764110922713 0.3343472436872003 0.8326528186820024 Ar
    velocity 3.0463390699656898 0.4797993788596746 -0.1543672019825495
atom_frac 0.5168001977737425 0.4949023949239259 0.0017203071137107 Ar
    velocity -0.1949363097184663 0.7728527404768306 0.0262048644403223
atom_frac 0.4927222109404091 0.6627001974765063 0.1625963661768379 Ar
    velocity -1.3217215457008860 -0.5065719946918773 -1.9864284607011817
atom_frac 0.5011367458437342 0.8526178522236740 0.3165143990850888 Ar
    velocity -0.5501851113706721 0.6593154479480708 0.1516476522462676
atom_frac 0.6707929722206565 0.0084938400967511 0.6768066398877468 Ar
    velocity -1.3267237504144080 -0.5166589256774363 -0.5253888510770330
atom_frac 0.6575559931462067 0.1840283127017508 0.8173505548764599 Ar
    velocity -1.0348591568533407 -0.6943490997245032 -1.3963009623983604
atom_frac 0.6810343802507791 0.3292748411279569 0.0035358398110512 Ar
    velocity 1.1319199329712453 2.1469869428711523 -1.1389090528161749
atom_frac 0.6605693479558945 0.4949110575655706 0.1694759348214791 Ar
    velocity 0.6578808648080704 2.5439903879922996 2.2142110532847306
atom_frac 0.6568364512941384 0.6799952501282513 0.3331556106393483 Ar
    velocity -0.6659915137544344 0.2094891372882187 1.3905582066698470
atom_frac 0.6771785745560881 0.8422344302265184 0.5374377267705255 Ar
    velocity 2.3490119678226202 -1.9140761957690697 0.4250490186398950
atom_frac 0.8481708281405660 -0.0000677412578779 0.8474812547091450 Ar
    velocity 0.6977099501728908 -1.6374206783712204 -0.5483504965079619
atom_frac 0.8210353664566241 0.1750286998758518 -0.0136449453974382 Ar
    velocity -0.7135322202509525 -0.1988482297771755 -0.4500760770226688
atom_frac 0.8152320746926885 0.3342484933375541 0.1665300736924374 Ar
    velocity -1.3584348002796867 0.9032680510408605 -2.8509050208826214
atom_frac 0.8274116323606345 0.5052843474972220 0.3346877074147510 Ar
    velocity -0.9266727702244406 -0.6142600549145867 0.0834093529457143
atom_frac 0.8434880722428910 0.6723441168132531 0.4956272892658483 Ar
    velocity 0.9492846103964961 -0.8570848287515427 0.5853193829053844
atom_frac 0.8414569666426231 0.8072191115365767 0.6656175233006933 Ar
    velocity 0.1986968710722670 2.0666021263694079 -0.5989488881967542
atom_frac 0.1590080804553050 0.1741672148708165 0.0108090008277322 Ar
    velocity -1.1967762614919855 0.8627319572070803 -0.9372888833292998
atom_frac 0.1584509131777572 0.3209738943653463 0.1803751850078272 Ar
    velocity 0.6000344638779035 0.0911295133865498 -2.1854947964453211
atom_frac 0.1630776653624755 0.4989339515209131 0.3453812184623836 Ar
    velocity -1.2738017162159063 0.9582212583051056 -0.6085155049497090
atom_frac 0.1556238649777213 0.6701818885082979 0.4991356365630404 Ar
    velocity -1.2850189323906627 0.3669694649962341 -0.0627176090176071
atom_frac 0.1772258782131087 0.8426781313284576 0.6609381349596120 Ar
    velocity -2.7937294785657074 -1.6462968226940531 0.9108081604534166
atom_frac 0.1466642577996460 -0.0103898319496706 0.8372771205288627 Ar
    velocity -1.6304715216490515 0.8006900699741276 1.5760971056424835
atom_frac 0.3333390566215322 0.1602614215185695 0.1579576705485570 Ar
    velocity -0.7415806178046053 0.4480324621728078 -0.8662770085467206
atom_frac 0.3046416799716634 0.3268858621052392 0.3165304336067113 Ar
    velocity 0.0254764320992225 -0.7090492482186099 -0.4817340537674871
atom_frac 0.3458673040388275 0.4941505794750491 0.4935545986642531 Ar
    velocity -1.5760930779689353 -1.2124852755664828 -1.5289312907126300
atom_frac 0.3240505749870864 0.6601657291346033 0.6579530887413603 Ar
    velocity -0.4199728136027046 -0.1311518587371882 0.4039156907467447
atom_frac 0.3327334030562477 0.8364596340201804 0.8244320983993871 Ar
    velocity -0.5088480439400427 0.2846486987907518 1.9589468399209820
atom_frac 0.3131294385575019 0.0170421744582463 -0.0174782427742579 Ar
    velocity -0.5282082302833244 0.8507645587108220 0.9484516306453198
atom_frac 0.5060112611006847 0.1585739223749158 0.3500003257581564 Ar
    velocity 1.6972969579582677 -1.7443023819765548 -0.3296495881625227
atom_frac 0.5016876841963041 0.3153564697385093 0.4985910131455242 Ar
    velocity -0.1253396166284967 -0.0947583105362496 2.4240477376958669
atom_frac 0.4857573419503634 0.4927724078539321 0.6701184687271280 Ar
    velocity 1.3555115262049695 -0.0441353638113322 1.3919134858044573
atom_frac 0.5105224797160515 0.6720482042839352 0.8403022150313689 Ar
    velocity 1.7792174524635218 0.3908924636329342 0.9644117351710941
atom_frac 0.4881087314925381 0.8534415888946786 -0.0025548866581783 Ar
    velocity 1.2132847415065549 0.5563634424169837 -0.2844930120767489
atom_frac 0.5041102625416221 0.0119675206434775 0.1534585849740330 Ar
    velocity -0.0073791283357824 1.5189640231262087 1.1539945615346086
atom_frac 0.6695339745295128 0.1639427117531902 0.5118375065615234 Ar
    velocity -1.1269953908196073 -0.6667407399983684 -1.2469798516544404
atom_frac 0.6717389137371260 0.3676485575487298 0.6557696331221856 Ar
    velocity 1.7690888635190412 -1.2870047076354501 -0.4305658358000447
atom_frac 0.6736259950877329 0.5026772045355117 0.8374518656496986 Ar
    velocity 0.1571073752770407 0.9878364107861989 -2.4144693023609332
atom_frac 0.6774624150144961 0.6852674680641316 -0.0018104386201625 Ar
    velocity 0.2713984400875479 0.7324499835553078 0.9469013284604199
atom_frac 0.6761926686033682 0.8354959677301581 0.1562173681257200 Ar
    velocity -0.0643553982781005 1.3254993684707181 -0.5617882529063094
atom_frac 0.6766567782096139 -0.0125949781786270 0.3243726679078898 Ar
    velocity 0.3428507655363731 0.6078218690922608 -0.4932405190953473
atom_frac 0.8355492457294835 0.1757584732694186 0.6717432376091688 Ar
    velocity -1.2223815402063856 0.2455070337758425 -0.8214151690589540
atom_frac 0.8309816170814890 0.3284183561532618 0.8356865197003602 Ar
    velocity 0.7167812053200244 0.6428094893997124 0.3779017777763639
atom_frac 0.8420293881223793 0.5042931660753998 0.0007616535122336 Ar
    velocity -1.1999089872085045 0.4444563916633776 1.0045477026827996
atom_frac 0.8509798571073374 0.6559130789709408 0.1575832637017814 Ar
    velocity 0.5667826611587448 0.8888534690129251 1.0649431229699473
atom_frac 0.8275115733502085 0.8334652084155092 0.3388288878490138 Ar
    velocity 0.1706090898814805 -0.1695068921580923 -1.4232587689107770
atom_frac 0.8412979430276996 -0.0065438396441396 0.5144261842637120 Ar
    velocity 1.9072765635963060 -0.6334655898790729 2.0555519356630541
atom_frac -0.0001187353859500 0.1603284009208699 0.8395958492099326 Ar
    velocity 0.4945863738395119 -1.3011183618569475 0.6574924585977872
atom_frac 0.0171599033334802 0.3402461812296731 0.0247261147383470 Ar
    velocity 0.5939790856210290 -1.3169312066377517 -0.2480775485066267
atom_frac 0.0097292751440806 0.4833840650268746 0.1862142656120341 Ar
    velocity -1.4732844880046825 0.9294284462349353 0.4365986062539933
atom_frac -0.0029575851459887 0.6688410973568134 0.3247029171450250 Ar
    velocity 1.9411363635516685 0.2203502975398692 0.1557846523155200
atom_frac 0.0051075731155923 0.8271272876871066 0.4941220105683691 Ar
    velocity 2.2435474027232614 -0.4355310394842324 0.4849630194294113
atom_frac -0.0095769206117212 -0.0150604895342682 0.6760124337518790 Ar
    velocity 0.6515253969873960 0.2996755479086687 0.3735037161837964
atom_frac 0.3169791778212798 0.3204422400166583 -0.0035746218707759 Ar
    velocity -1.9263903312461588 -1.8814357205974326 -0.3588162049260603
atom_frac 0.3366661171128706 0.4742977277796753 0.1461030688763085 Ar
    velocity -0.8191955347745626 -0.8446692795462203 0.8018661966281879
atom_frac 0.3394888770875862 0.6649722321917757 0.3275922592468946 Ar
    velocity 0.2152098275700260 0.9951999675003305 -1.1187360314661985
atom_frac 0.3315280855590814 0.8382467356708030 0.4905545174158956 Ar
    velocity 1.2917689830783115 1.4262712677381377 2.2288902777896484
atom_frac 0.3392159229493361 0.0114318168400439 0.6790013965214861 Ar
    velocity -0.7517186986392503 -0.8128510473997954 0.7261108677453808
atom_frac 0.3094556239602873 0.1788316940446534 0.8205779759146699 Ar
    velocity -0.4626104241209904 0.4389390385709788 0.5051252413957331
atom_frac 0.5003699522040943 0.3227741503408814 0.1938463119815171 Ar
    velocity -1.2390944967420181 -0.5356514486622754 0.0172363044786077
atom_frac 0.5085771329947387 0.5054227673487420 0.3320221725821267 Ar
    velocity 1.4406311119823176 -0.8416523326051387 0.2290707588546708
atom_frac 0.4920722013623222 0.6589538309975378 0.5026091526089085 Ar
    velocity -0.4965916754775326 -1.2771882756310227 -0.9033134772177596
atom_frac 0.4926002986227502 0.8313306665360235 0.6649058487556974 Ar
    velocity 1.2081478600745681 -0.1531227489692867 -1.5043938205329275
atom_frac 0.5088933949395859 0.0095498193299779 0.8350057862340182 Ar
    velocity -0.7864424981784274 0.5803813152331715 -1.2709088552094003
atom_frac 0.5027596619318898 0.1746275357198686 -0.0119931777640809 Ar
    velocity -0.4865588490819067 -1.1766506615061627 -0.9632926147414451
atom_frac 0.6763217119593590 0.3287282628562232 0.3478003689679772 Ar
    velocity 1.8969836874284081 -0.3559007791562766 -0.0283030405696709
atom_frac 0.6812579832000006 0.5188952000906184 0.4923686426184807 Ar
    velocity -2.4208527038188512 0.2703243508518227 1.6860871270067632
atom_frac 0.6615365734731321 0.6685867755545601 0.6750367876479118 Ar
    velocity -0.2226143851241927 -1.5544370830381697 0.8728886439386678
atom_frac 0.6683188271066641 0.8504765454831070 0.8111486743806428 Ar
    velocity -1.3761305804196264 0.4168489884880553 0.4475701919926395
atom_frac 0.6681338787011706 0.0042185556218037 -0.0136863295987346 Ar
    velocity 0.5672023728123010 0.4480894370590252 0.7174324323857962
atom_frac 0.6699697128909380 0.1706479579013860 0.1885363383270514 Ar
    velocity 0.5394463328999354 -2.9211200236083923 1.2776710050496529
atom_frac 0.8282754331609674 0.3455559939184387 0.5014186863106953 Ar
    velocity 0.5422266988348413 -1.2236720664915017 0.6982806478752143
atom_frac 0.8378903387038629 0.4978793676547998 0.6721289104028312 Ar
    velocity -0.1855448045663076 -1.3302988562332592 -0.9018444413507148
atom_frac 0.8406486008405912 0.6608030064645458 0.8371227053769726 Ar
    velocity -0.1227600923806686 0.3980087538980934 -0.1108491393329206
atom_frac 0.8363591125626303 0.8288083914946749 0.0002068921419266 Ar
    velocity -0.3299308437487920 0.0384623969106614 0.9070807688219567
atom_frac 0.8260758587706050 0.0194985442577438 0.1719136254116276 Ar
    velocity 1.3004225467536104 0.0787474217933988 -0.1366862634486133
atom_frac 0.8273265074302765 0.1708218232329748 0.3501338145913647 Ar
    velocity 1.0797739344348598 -0.6987982172784707 0.8316794454968813
atom_frac -0.0082388957137805 0.3314154282211527 0.6632465318594267 Ar
    velocity -0.2279995265746026 -0.9489661914523160 1.8342510627647615
atom_frac 0.0075213963280415 0.4998616120718097 0.8258232742083579 Ar
    velocity -0.4840427503296903 0.3011305234226824 -1.8482725755264926
atom_frac -0.0014603832468913 0.6650720182573149 -0.0086714583146173 Ar
    velocity -0.0213145323883114 0.5985397762928828 -0.9144073942038385
atom_frac -0.0021397005707901 0.8211456521210104 0.1671326024586151 Ar
    velocity 0.0840237453280266 -0.4666052278758406 -1.6237605705050169
atom_frac 0.0179352323117281 0.0052954980896907 0.3292604428831194 Ar
    velocity -0.5694172161452312 -0.0213173563550007 0.9006360962398788
atom_frac -0.0156138512611376 0.1484604515160427 0.5170182457946274 Ar
    velocity -0.2725205863542708 0.1548764614740538 0.8909335659444867
atom_frac 0.1697420672525326 0.3447398573310452 0.8103552402884370 Ar
    velocity -1.2337131221744739 0.7349378992287866 -0.4422252970613038
atom_frac 0.1718217949001470 0.5072055148605229 -0.0164823494852133 Ar
    velocity 0.0797850458354028 1.6956993405228706 1.1331251101420965
atom_frac 0.1591024143387112 0.6542541659851165 0.1437424570178334 Ar
    velocity -2.0286160078324040 1.1112299292136454 -1.9669661423670584
atom_frac 0.1708031353832761 0.8348963480822115 0.3479217882811015 Ar
    velocity 1.3312013329887145 0.5974650256113032 0.5885148715497882
atom_frac 0.1733637888877807 -0.0148044828295201 0.5102167936757313 Ar
    velocity -1.1287093023535142 1.2210009880586845 -0.7277547586402100
atom_frac 0.1478313732646173 0.1556131122119848 0.6654215278937412 Ar
    velocity 0.2749508188076004 -1.0949126181859186 -1.0096927370199349
