#=======================================================
# FHI-aims file: geometry.in.supercell
# Created using the Atomic Simulation Environment (ASE)
# Sun Jun  2 23:48:03 2024

# Additional information:
#  Number of atoms:     108
#  Spacegroup:          225
#  supercell:           True
#  supercell_matrix:    [-3, 3, 3, 3, -3, 3, 3, 3, -3]
#  Supercell matrix:    [-3  3  3  3 -3  3  3  3 -3]
#=======================================================
lattice_vector 16.2077692186739952 0.0000000000000000 0.0000000000000000 
lattice_vector 0.0000000000000000 16.2077692186739952 0.0000000000000000 
lattice_vector 0.0000000000000000 0.0000000000000000 16.2077692186739952 
atom_frac 0.0000000000000000 0.0000000000000000 0.0000000000000000 Ar
atom_frac 0.0000000000000000 0.1666666666666667 0.1666666666666667 Ar
atom_frac 0.0000000000000000 0.3333333333333333 0.3333333333333333 Ar
atom_frac 0.0000000000000000 0.5000000000000000 0.5000000000000000 Ar
atom_frac 0.0000000000000000 0.6666666666666666 0.6666666666666666 Ar
atom_frac 0.0000000000000000 0.8333333333333334 0.8333333333333333 Ar
atom_frac 0.1666666666666667 0.0000000000000000 0.1666666666666667 Ar
atom_frac 0.1666666666666666 0.1666666666666667 0.3333333333333333 Ar
atom_frac 0.1666666666666667 0.3333333333333333 0.5000000000000000 Ar
atom_frac 0.1666666666666667 0.5000000000000000 0.6666666666666666 Ar
atom_frac 0.1666666666666667 0.6666666666666666 0.8333333333333331 Ar
atom_frac 0.1666666666666667 0.8333333333333334 0.0000000000000000 Ar
atom_frac 0.3333333333333333 0.0000000000000000 0.3333333333333334 Ar
atom_frac 0.3333333333333333 0.1666666666666667 0.5000000000000000 Ar
atom_frac 0.3333333333333333 0.3333333333333333 0.6666666666666666 Ar
atom_frac 0.3333333333333333 0.5000000000000000 0.8333333333333333 Ar
atom_frac 0.3333333333333334 0.6666666666666666 0.0000000000000000 Ar
atom_frac 0.3333333333333334 0.8333333333333334 0.1666666666666667 Ar
atom_frac 0.5000000000000000 0.0000000000000000 0.5000000000000000 Ar
atom_frac 0.5000000000000000 0.1666666666666667 0.6666666666666666 Ar
atom_frac 0.5000000000000000 0.3333333333333333 0.8333333333333333 Ar
atom_frac 0.5000000000000000 0.5000000000000000 0.0000000000000000 Ar
atom_frac 0.5000000000000000 0.6666666666666667 0.1666666666666665 Ar
atom_frac 0.5000000000000000 0.8333333333333334 0.3333333333333333 Ar
atom_frac 0.6666666666666666 0.0000000000000000 0.6666666666666667 Ar
atom_frac 0.6666666666666666 0.1666666666666667 0.8333333333333333 Ar
atom_frac 0.6666666666666666 0.3333333333333334 0.0000000000000000 Ar
atom_frac 0.6666666666666666 0.5000000000000000 0.1666666666666665 Ar
atom_frac 0.6666666666666666 0.6666666666666667 0.3333333333333333 Ar
atom_frac 0.6666666666666666 0.8333333333333334 0.5000000000000000 Ar
atom_frac 0.8333333333333334 0.0000000000000000 0.8333333333333334 Ar
atom_frac 0.8333333333333334 0.1666666666666667 0.0000000000000000 Ar
atom_frac 0.8333333333333334 0.3333333333333334 0.1666666666666668 Ar
atom_frac 0.8333333333333334 0.5000000000000000 0.3333333333333335 Ar
atom_frac 0.8333333333333334 0.6666666666666667 0.5000000000000000 Ar
atom_frac 0.8333333333333334 0.8333333333333334 0.6666666666666667 Ar
atom_frac 0.1666666666666667 0.1666666666666667 0.0000000000000000 Ar
atom_frac 0.1666666666666667 0.3333333333333333 0.1666666666666667 Ar
atom_frac 0.1666666666666667 0.5000000000000000 0.3333333333333333 Ar
atom_frac 0.1666666666666667 0.6666666666666666 0.5000000000000000 Ar
atom_frac 0.1666666666666667 0.8333333333333333 0.6666666666666666 Ar
atom_frac 0.1666666666666666 0.0000000000000000 0.8333333333333334 Ar
atom_frac 0.3333333333333333 0.1666666666666667 0.1666666666666667 Ar
atom_frac 0.3333333333333333 0.3333333333333334 0.3333333333333333 Ar
atom_frac 0.3333333333333333 0.5000000000000000 0.5000000000000000 Ar
atom_frac 0.3333333333333333 0.6666666666666666 0.6666666666666666 Ar
atom_frac 0.3333333333333333 0.8333333333333333 0.8333333333333331 Ar
atom_frac 0.3333333333333333 0.0000000000000000 0.0000000000000000 Ar
atom_frac 0.5000000000000000 0.1666666666666667 0.3333333333333334 Ar
atom_frac 0.5000000000000000 0.3333333333333334 0.5000000000000000 Ar
atom_frac 0.5000000000000000 0.5000000000000000 0.6666666666666666 Ar
atom_frac 0.5000000000000000 0.6666666666666667 0.8333333333333333 Ar
atom_frac 0.5000000000000000 0.8333333333333333 0.0000000000000000 Ar
atom_frac 0.5000000000000000 0.0000000000000000 0.1666666666666668 Ar
atom_frac 0.6666666666666666 0.1666666666666667 0.5000000000000000 Ar
atom_frac 0.6666666666666666 0.3333333333333333 0.6666666666666666 Ar
atom_frac 0.6666666666666666 0.5000000000000000 0.8333333333333333 Ar
atom_frac 0.6666666666666666 0.6666666666666667 0.0000000000000000 Ar
atom_frac 0.6666666666666666 0.8333333333333333 0.1666666666666665 Ar
atom_frac 0.6666666666666666 0.0000000000000000 0.3333333333333333 Ar
atom_frac 0.8333333333333333 0.1666666666666667 0.6666666666666667 Ar
atom_frac 0.8333333333333333 0.3333333333333333 0.8333333333333333 Ar
atom_frac 0.8333333333333333 0.5000000000000000 0.0000000000000000 Ar
atom_frac 0.8333333333333333 0.6666666666666667 0.1666666666666665 Ar
atom_frac 0.8333333333333333 0.8333333333333333 0.3333333333333333 Ar
atom_frac 0.8333333333333333 0.0000000000000000 0.5000000000000000 Ar
atom_frac 0.0000000000000000 0.1666666666666666 0.8333333333333334 Ar
atom_frac 0.0000000000000000 0.3333333333333333 0.0000000000000000 Ar
atom_frac 0.0000000000000000 0.5000000000000000 0.1666666666666667 Ar
atom_frac 0.0000000000000000 0.6666666666666666 0.3333333333333335 Ar
atom_frac 0.0000000000000000 0.8333333333333333 0.5000000000000000 Ar
atom_frac 0.0000000000000000 0.0000000000000000 0.6666666666666667 Ar
atom_frac 0.3333333333333333 0.3333333333333334 0.0000000000000000 Ar
atom_frac 0.3333333333333333 0.5000000000000000 0.1666666666666667 Ar
atom_frac 0.3333333333333334 0.6666666666666666 0.3333333333333333 Ar
atom_frac 0.3333333333333334 0.8333333333333333 0.5000000000000000 Ar
atom_frac 0.3333333333333333 0.0000000000000000 0.6666666666666666 Ar
atom_frac 0.3333333333333333 0.1666666666666667 0.8333333333333334 Ar
atom_frac 0.5000000000000000 0.3333333333333334 0.1666666666666667 Ar
atom_frac 0.5000000000000000 0.5000000000000000 0.3333333333333333 Ar
atom_frac 0.5000000000000000 0.6666666666666667 0.5000000000000000 Ar
atom_frac 0.5000000000000000 0.8333333333333333 0.6666666666666666 Ar
atom_frac 0.5000000000000000 0.0000000000000000 0.8333333333333333 Ar
atom_frac 0.5000000000000000 0.1666666666666668 0.0000000000000000 Ar
atom_frac 0.6666666666666666 0.3333333333333334 0.3333333333333334 Ar
atom_frac 0.6666666666666666 0.5000000000000000 0.5000000000000000 Ar
atom_frac 0.6666666666666666 0.6666666666666667 0.6666666666666666 Ar
atom_frac 0.6666666666666666 0.8333333333333333 0.8333333333333333 Ar
atom_frac 0.6666666666666666 0.0000000000000000 0.0000000000000000 Ar
atom_frac 0.6666666666666666 0.1666666666666668 0.1666666666666668 Ar
atom_frac 0.8333333333333333 0.3333333333333334 0.5000000000000000 Ar
atom_frac 0.8333333333333333 0.5000000000000000 0.6666666666666666 Ar
atom_frac 0.8333333333333333 0.6666666666666667 0.8333333333333333 Ar
atom_frac 0.8333333333333333 0.8333333333333333 0.0000000000000000 Ar
atom_frac 0.8333333333333333 0.0000000000000000 0.1666666666666666 Ar
atom_frac 0.8333333333333333 0.1666666666666668 0.3333333333333333 Ar
atom_frac 0.0000000000000000 0.3333333333333333 0.6666666666666666 Ar
atom_frac 0.0000000000000000 0.5000000000000000 0.8333333333333331 Ar
atom_frac 0.0000000000000000 0.6666666666666666 0.0000000000000000 Ar
atom_frac 0.0000000000000000 0.8333333333333333 0.1666666666666665 Ar
atom_frac 0.0000000000000000 0.0000000000000000 0.3333333333333333 Ar
atom_frac 0.0000000000000000 0.1666666666666667 0.5000000000000000 Ar
atom_frac 0.1666666666666667 0.3333333333333333 0.8333333333333334 Ar
atom_frac 0.1666666666666668 0.5000000000000000 0.0000000000000000 Ar
atom_frac 0.1666666666666668 0.6666666666666666 0.1666666666666667 Ar
atom_frac 0.1666666666666667 0.8333333333333333 0.3333333333333335 Ar
atom_frac 0.1666666666666667 0.0000000000000000 0.5000000000000000 Ar
atom_frac 0.1666666666666667 0.1666666666666667 0.6666666666666667 Ar
