#=======================================================
# FHI-aims file: geometry.in.primitive
# Created using the Atomic Simulation Environment (ASE)
# Mon Aug 12 10:27:08 2019

# Additional information:
#  Number of atoms:     5
#=======================================================
lattice_vector 4.1657061700000000 0.0000000000000000 0.0000000000000000 
lattice_vector 0.0000000000000000 4.1657061700000000 0.0000000000000000 
lattice_vector 0.0000000000000000 0.0000000000000000 4.1657061700000000 
atom 0.0000000000000000 0.0000000000000000 0.0000000000000000 Ba
atom 2.0828530900000000 2.0828530900000000 2.0828530899999995 Hf
atom 0.0000000000000000 2.0828530900000004 2.0828530899999995 O
atom 2.0828530900000000 0.0000000000000000 2.0828530899999995 O
atom 2.0828530900000000 2.0828530900000000 0.0000000000000000 O
