#=======================================================
# FHI-aims file: geometry.in.supercell
# Created using the Atomic Simulation Environment (ASE)
# Mon Aug 12 10:27:08 2019

# Additional information:
#  Number of atoms:     120
#=======================================================
lattice_vector 8.3314123400000000 -8.3314123400000000 0.0000000000000000 
lattice_vector 8.3314123400000000 8.3314123400000000 0.0000000000000000 
lattice_vector 0.0000000000000000 0.0000000000000000 12.4971185100000000 
atom 0.0000000000000000 0.0000000000000000 0.0000000000000000 Ba
atom 4.1657061700000000 0.0000000000000000 0.0000000000000000 Ba
atom 8.3314123400000000 0.0000000000000000 0.0000000000000000 Ba
atom 12.4971185100000000 0.0000000000000000 0.0000000000000000 Ba
atom 8.3314123400000000 -4.1657061700000000 0.0000000000000000 Ba
atom 4.1657061700000000 4.1657061700000000 0.0000000000000000 Ba
atom 8.3314123400000000 4.1657061700000000 0.0000000000000000 Ba
atom 4.1657061700000000 -4.1657061700000000 0.0000000000000000 Ba
atom 0.0000000000000000 0.0000000000000000 4.1657061700000000 Ba
atom 4.1657061700000000 0.0000000000000000 4.1657061700000000 Ba
atom 8.3314123400000000 0.0000000000000000 4.1657061700000000 Ba
atom 12.4971185100000000 0.0000000000000000 4.1657061700000000 Ba
atom 8.3314123400000000 -4.1657061700000000 4.1657061700000000 Ba
atom 4.1657061700000000 4.1657061700000000 4.1657061700000000 Ba
atom 8.3314123400000000 4.1657061700000000 4.1657061700000000 Ba
atom 4.1657061700000000 -4.1657061700000000 4.1657061700000000 Ba
atom 0.0000000000000000 0.0000000000000000 8.3314123400000000 Ba
atom 4.1657061700000000 0.0000000000000000 8.3314123400000000 Ba
atom 8.3314123400000000 0.0000000000000000 8.3314123400000000 Ba
atom 12.4971185100000000 0.0000000000000000 8.3314123400000000 Ba
atom 8.3314123400000000 -4.1657061700000000 8.3314123400000000 Ba
atom 4.1657061700000000 4.1657061700000000 8.3314123400000000 Ba
atom 8.3314123400000000 4.1657061700000000 8.3314123400000000 Ba
atom 4.1657061700000000 -4.1657061700000000 8.3314123400000000 Ba
atom 2.0828530900000000 2.0828530900000000 2.0828530899999995 Hf
atom 6.2485592600000004 2.0828530900000004 2.0828530899999995 Hf
atom 10.4142654300000004 2.0828530900000004 2.0828530899999995 Hf
atom 6.2485592600000004 -6.2485592499999996 2.0828530899999995 Hf
atom 10.4142654300000004 -2.0828530799999996 2.0828530899999995 Hf
atom 6.2485592600000004 6.2485592600000004 2.0828530899999995 Hf
atom 2.0828530900000004 -2.0828530799999996 2.0828530899999995 Hf
atom 6.2485592600000004 -2.0828530799999996 2.0828530899999995 Hf
atom 2.0828530900000000 2.0828530900000000 6.2485592599999995 Hf
atom 6.2485592600000004 2.0828530900000004 6.2485592599999995 Hf
atom 10.4142654300000004 2.0828530900000004 6.2485592599999995 Hf
atom 6.2485592600000004 -6.2485592499999996 6.2485592599999995 Hf
atom 10.4142654300000004 -2.0828530799999996 6.2485592599999995 Hf
atom 6.2485592600000004 6.2485592600000004 6.2485592599999995 Hf
atom 2.0828530900000004 -2.0828530799999996 6.2485592599999995 Hf
atom 6.2485592600000004 -2.0828530799999996 6.2485592599999995 Hf
atom 2.0828530900000000 2.0828530900000000 10.4142654300000004 Hf
atom 6.2485592600000004 2.0828530900000004 10.4142654300000004 Hf
atom 10.4142654300000004 2.0828530900000004 10.4142654300000004 Hf
atom 6.2485592600000004 -6.2485592499999996 10.4142654300000004 Hf
atom 10.4142654300000004 -2.0828530799999996 10.4142654300000004 Hf
atom 6.2485592600000004 6.2485592600000004 10.4142654300000004 Hf
atom 2.0828530900000004 -2.0828530799999996 10.4142654300000004 Hf
atom 6.2485592600000004 -2.0828530799999996 10.4142654300000004 Hf
atom 8.3314123400000000 -6.2485592499999996 2.0828530899999995 O
atom 4.1657061700000000 2.0828530900000000 2.0828530899999995 O
atom 8.3314123400000000 2.0828530900000004 2.0828530899999995 O
atom 12.4971185100000000 2.0828530900000004 2.0828530899999995 O
atom 8.3314123400000000 -2.0828530799999996 2.0828530899999995 O
atom 12.4971185100000000 -2.0828530799999996 2.0828530899999995 O
atom 8.3314123400000000 6.2485592600000004 2.0828530899999995 O
atom 4.1657061700000009 -2.0828530799999987 2.0828530899999995 O
atom 8.3314123400000000 -6.2485592499999996 6.2485592599999995 O
atom 4.1657061700000000 2.0828530900000000 6.2485592599999995 O
atom 8.3314123400000000 2.0828530900000004 6.2485592599999995 O
atom 12.4971185100000000 2.0828530900000004 6.2485592599999995 O
atom 8.3314123400000000 -2.0828530799999996 6.2485592599999995 O
atom 12.4971185100000000 -2.0828530799999996 6.2485592599999995 O
atom 8.3314123400000000 6.2485592600000004 6.2485592599999995 O
atom 4.1657061700000009 -2.0828530799999987 6.2485592599999995 O
atom 8.3314123400000000 -6.2485592499999996 10.4142654300000004 O
atom 4.1657061700000000 2.0828530900000000 10.4142654300000004 O
atom 8.3314123400000000 2.0828530900000004 10.4142654300000004 O
atom 12.4971185100000000 2.0828530900000004 10.4142654300000004 O
atom 8.3314123400000000 -2.0828530799999996 10.4142654300000004 O
atom 12.4971185100000000 -2.0828530799999996 10.4142654300000004 O
atom 8.3314123400000000 6.2485592600000004 10.4142654300000004 O
atom 4.1657061700000009 -2.0828530799999987 10.4142654300000004 O
atom 2.0828530900000000 -0.0000000000000000 2.0828530899999995 O
atom 6.2485592600000004 -0.0000000000000000 2.0828530899999995 O
atom 10.4142654300000004 -0.0000000000000000 2.0828530899999995 O
atom 14.5799716000000004 -0.0000000000000000 2.0828530899999995 O
atom 10.4142654300000004 -4.1657061700000000 2.0828530899999995 O
atom 6.2485592600000004 4.1657061700000000 2.0828530899999995 O
atom 10.4142654300000004 4.1657061700000000 2.0828530899999995 O
atom 6.2485592600000013 -4.1657061699999991 2.0828530899999995 O
atom 2.0828530900000000 -0.0000000000000000 6.2485592599999995 O
atom 6.2485592600000004 -0.0000000000000000 6.2485592599999995 O
atom 10.4142654300000004 -0.0000000000000000 6.2485592599999995 O
atom 14.5799716000000004 -0.0000000000000000 6.2485592599999995 O
atom 10.4142654300000004 -4.1657061700000000 6.2485592599999995 O
atom 6.2485592600000004 4.1657061700000000 6.2485592599999995 O
atom 10.4142654300000004 4.1657061700000000 6.2485592599999995 O
atom 6.2485592600000013 -4.1657061699999991 6.2485592599999995 O
atom 2.0828530900000000 -0.0000000000000000 10.4142654300000004 O
atom 6.2485592600000004 -0.0000000000000000 10.4142654300000004 O
atom 10.4142654300000004 -0.0000000000000000 10.4142654300000004 O
atom 14.5799716000000004 -0.0000000000000000 10.4142654300000004 O
atom 10.4142654300000004 -4.1657061700000000 10.4142654300000004 O
atom 6.2485592600000004 4.1657061700000000 10.4142654300000004 O
atom 10.4142654300000004 4.1657061700000000 10.4142654300000004 O
atom 6.2485592600000013 -4.1657061699999991 10.4142654300000004 O
atom 2.0828530900000000 2.0828530900000000 0.0000000000000000 O
atom 6.2485592600000004 2.0828530900000004 0.0000000000000000 O
atom 10.4142654300000004 2.0828530900000004 0.0000000000000000 O
atom 6.2485592600000004 -6.2485592499999996 0.0000000000000000 O
atom 10.4142654300000004 -2.0828530799999996 0.0000000000000000 O
atom 6.2485592600000004 6.2485592600000004 0.0000000000000000 O
atom 2.0828530900000004 -2.0828530799999996 0.0000000000000000 O
atom 6.2485592600000004 -2.0828530799999996 0.0000000000000000 O
atom 2.0828530900000000 2.0828530900000000 4.1657061700000000 O
atom 6.2485592600000004 2.0828530900000004 4.1657061700000000 O
atom 10.4142654300000004 2.0828530900000004 4.1657061700000000 O
atom 6.2485592600000004 -6.2485592499999996 4.1657061700000000 O
atom 10.4142654300000004 -2.0828530799999996 4.1657061700000000 O
atom 6.2485592600000004 6.2485592600000004 4.1657061700000000 O
atom 2.0828530900000004 -2.0828530799999996 4.1657061700000000 O
atom 6.2485592600000004 -2.0828530799999996 4.1657061700000000 O
atom 2.0828530900000000 2.0828530900000000 8.3314123400000000 O
atom 6.2485592600000004 2.0828530900000004 8.3314123400000000 O
atom 10.4142654300000004 2.0828530900000004 8.3314123400000000 O
atom 6.2485592600000004 -6.2485592499999996 8.3314123400000000 O
atom 10.4142654300000004 -2.0828530799999996 8.3314123400000000 O
atom 6.2485592600000004 6.2485592600000004 8.3314123400000000 O
atom 2.0828530900000004 -2.0828530799999996 8.3314123400000000 O
atom 6.2485592600000004 -2.0828530799999996 8.3314123400000000 O
