#=======================================================
# FHI-aims file: Al.in
# Created using the Atomic Simulation Environment (ASE)
# Wed Dec  4 17:49:27 2019
#=======================================================
lattice_vector 0.0000000000000000 4.0499999999999998 4.0499999999999998 
lattice_vector 4.0499999999999998 0.0000000000000000 4.0499999999999998 
lattice_vector 4.0499999999999998 4.0499999999999998 0.0000000000000000 
atom 0.0000000000000000 0.0000000000000000 0.0000000000000000 Al
atom 2.0249999999999999 2.0249999999999999 0.0000000000000000 Al
atom 2.0249999999999999 0.0000000000000000 2.0249999999999999 Al
atom 4.0499999999999998 2.0249999999999999 2.0249999999999999 Al
atom 0.0000000000000000 2.0249999999999999 2.0249999999999999 Al
atom 2.0249999999999999 4.0499999999999998 2.0249999999999999 Al
atom 2.0249999999999999 2.0249999999999999 4.0499999999999998 Al
atom 4.0499999999999998 4.0499999999999998 4.0499999999999998 Al
