#=======================================================
# FHI-aims file: geometry.in.supercell
# Created using the Atomic Simulation Environment (ASE)
# Tue Mar 26 14:54:20 2019
#=======================================================
lattice_vector 5.4260675258199997 -0.0000000000000000 0.0000000000000000 
lattice_vector -0.0000000000000000 5.4260675258199997 0.0000000000000000 
lattice_vector 0.0000000000000000 0.0000000000000000 5.4260675258199997 
atom_frac 0.0000000000000000 0.0000000000000000 0.0000000000000000 Si
atom_frac 0.0000000000000000 0.5000000000000000 0.5000000000000000 Si
atom_frac 0.5000000000000000 0.0000000000000000 0.5000000000000000 Si
atom_frac 0.5000000000000000 0.5000000000000000 0.0000000000000000 Si
atom_frac 0.2500000000000000 0.2500000000000000 0.2500000000000000 Si
atom_frac 0.2500000000000000 0.7500000000000000 0.7500000000000000 Si
atom_frac 0.7500000000000000 0.2500000000000000 0.7500000000000000 Si
atom_frac 0.7500000000000000 0.7500000000000000 0.2500000000000000 Si
