#=======================================================
# FHI-aims file: geometry.in.primitive
# Created using the Atomic Simulation Environment (ASE)
# Wed Oct  9 16:01:17 2019

# Additional information:
#  Number of atoms:     2
#=======================================================
lattice_vector 0.0000000000000000 2.7199999999999998 2.7199999999999998 
lattice_vector 2.7199999999999998 0.0000000000000000 2.7199999999999998 
lattice_vector 2.7199999999999998 2.7199999999999998 0.0000000000000000 
atom 0.0000000000000000 0.0000000000000000 0.0000000000000000 Si
atom 1.3599999999999999 1.3599999999999999 1.3599999999999999 Si
