#===============================================================================
# Created using the Atomic Simulation Environment (ASE)

# Sun Jun  2 16:25:20 2024


# Additional information:
#  Relaxed with BFGS, fmax=1.000 meV/AA
#  nsteps = 1
#  residual force  = 0.000000 meV/AA
#  residual stress = 10.710798 meV/AA
#=======================================================
lattice_vector 0.0000000000000000 2.6304151493929999 2.6304151493929999 
lattice_vector 2.6304151493929999 -0.0000000000000000 2.6304151493929999 
lattice_vector 2.6304151493929999 2.6304151493929999 0.0000000000000000 
atom_frac 0.0000000000000000 0.0000000000000000 -0.0000000000000000 Ar
