#=======================================================
# FHI-aims file: geometry.in.primitive
# Created using the Atomic Simulation Environment (ASE)
# Sat Sep 28 23:58:10 2019

# Additional information:
#  Number of atoms:     2
#=======================================================
lattice_vector 0.0000000000000000 2.7253193900000001 2.7253193900000001 
lattice_vector 2.7253193900000001 0.0000000000000000 2.7253193900000001 
lattice_vector 2.7253193900000001 2.7253193900000001 0.0000000000000000 
atom 0.0000000000000000 0.0000000000000000 0.0000000000000000 Si
atom 1.3626596950000001 1.3626596950000001 1.3626596950000001 Si
