#=======================================================
# FHI-aims file: geometry.in.primitive.supercell_4
# Created using the Atomic Simulation Environment (ASE)
# Sat Sep 28 23:58:36 2019

# Additional information:
#  Number of atoms:     4
#  Spacegroup:          227
#  supercell:           True
#  supercell_matrix:    [2, 0, 0, 0, 1, 0, 0, 0, 1]
#  Supercell matrix:    [2 0 0 0 1 0 0 0 1]
#=======================================================
lattice_vector 0.0000000000000000 5.4506387800000002 5.4506387800000002 
lattice_vector 2.7253193900000001 0.0000000000000000 2.7253193900000001 
lattice_vector 2.7253193900000001 2.7253193900000001 0.0000000000000000 
atom 0.0000000000000000 0.0000000000000000 0.0000000000000000 Si
atom 0.0000000000000000 2.7253193900000001 2.7253193900000001 Si
atom 1.3626596950000001 1.3626596950000001 1.3626596950000001 Si
atom 1.3626596950000001 4.0879790849999997 4.0879790849999988 Si
