#=======================================================
# FHI-aims file: geometry.in.primitive.supercell_8
# Created using the Atomic Simulation Environment (ASE)
# Sun Sep 29 13:07:53 2019

# Additional information:
#  Number of atoms:     8
#  Spacegroup:          227
#  supercell:           True
#  supercell_matrix:    [-1, 1, 1, 1, -1, 1, 1, 1, -1]
#  Supercell matrix:    [-1  1  1  1 -1  1  1  1 -1]
#=======================================================
lattice_vector 5.4506387800000002 0.0000000000000000 0.0000000000000000 
lattice_vector 0.0000000000000000 5.4506387800000002 0.0000000000000000 
lattice_vector 0.0000000000000000 0.0000000000000000 5.4506387800000002 
atom 0.0000000000000000 0.0000000000000000 0.0000000000000000 Si
atom 0.0000000000000000 2.7253193900000001 2.7253193900000001 Si
atom 2.7253193900000001 0.0000000000000000 2.7253193900000001 Si
atom 2.7253193900000001 2.7253193900000001 0.0000000000000000 Si
atom 1.3626596950000001 1.3626596950000001 1.3626596950000001 Si
atom 1.3626596950000001 4.0879790850000006 4.0879790849999997 Si
atom 4.0879790850000006 1.3626596950000001 4.0879790850000006 Si
atom 4.0879790850000006 4.0879790850000006 1.3626596950000001 Si
