#=======================================================
# FHI-aims file: geometry.in.supercell.0600K.000
# Created using the Atomic Simulation Environment (ASE)
# Thu Jan 16 15:26:49 2020

# Additional information:
#  created from force constants
#  T = 600.0 K
#  quantum:             False
#  deterministic:       False
#  plus_minus:          True
#  gauge_eigenvectors:  True
#  Random seed:         4
#  Sample number:       1
#  Harmonic E_pot:        0.233eV (450.00K)
#  Propagated for:      1.0 fs
#=======================================================
lattice_vector 0.0000000000000000 2.7199999999999998 2.7199999999999998 
lattice_vector 5.4399999999999995 0.0000000000000000 5.4399999999999995 
lattice_vector 2.7199999999999998 2.7199999999999998 0.0000000000000000 
atom -0.0041805955316675 0.0006987497643076 -0.0014435797652479 Si
    velocity -4.1805955316675458 0.6987497643075870 -1.4435797652479270
atom 3.4423576825728621 -0.5004370956408629 3.1412375218112705 Si
    velocity 3.3028722607188326 8.0114367756602807 6.0910335154595128
atom 0.9979687597580073 1.6798032562632916 1.0633865150020498 Si
    velocity -2.5038350859209082 -1.7678308179420372 -3.0605879382002770
atom 4.3551587308012474 1.0988333780697124 4.3180980709587029 Si
    velocity 3.3815583568696215 -6.9423557220258321 -1.5868658120113091
