#=======================================================
# FHI-aims file: geometry.in.supercell.0300K
# Created using the Atomic Simulation Environment (ASE)
# Thu Jan 16 15:26:48 2020

# Additional information:
#  created from MB distribution
#  T = 300.0 K
#  quantum:             False
#  deterministic:       False
#  plus_minus:          False
#  gauge_eigenvectors:  False
#  Random seed:         4
#  Sample number:       1
#=======================================================
lattice_vector 0.0000000000000000 2.7199999999999998 2.7199999999999998 
lattice_vector 5.4399999999999995 0.0000000000000000 5.4399999999999995 
lattice_vector 2.7199999999999998 2.7199999999999998 0.0000000000000000 
atom 0.0000000000000000 0.0000000000000000 0.0000000000000000 Si
    velocity 1.4546724554250516 0.8135480904671146 -1.9121544420402137
atom 2.7199999999999998 0.0000000000000000 2.7199999999999998 Si
    velocity 4.4401677201307530 -3.4497219748363910 -4.6452273096450725
atom 1.3599999999999999 1.3599999999999999 1.3599999999999999 Si
    velocity -1.7872527651655408 1.2714394723589841 4.2542302654473225
atom 4.0799999999999992 1.3599999999999999 4.0799999999999992 Si
    velocity -4.1075874103902636 1.3647344120102918 2.3031514862379661
