#=======================================================
# FHI-aims file: geometry.in.supercell.0600K.001
# Created using the Atomic Simulation Environment (ASE)
# Thu Jan 16 15:26:49 2020

# Additional information:
#  created from force constants
#  T = 600.0 K
#  quantum:             False
#  deterministic:       False
#  plus_minus:          True
#  gauge_eigenvectors:  True
#  Random seed:         4
#  Sample number:       2
#  Harmonic E_pot:        0.233eV (450.00K)
#  Propagated for:      1.0 fs
#=======================================================
lattice_vector 0.0000000000000000 2.7199999999999998 2.7199999999999998 
lattice_vector 5.4399999999999995 0.0000000000000000 5.4399999999999995 
lattice_vector 2.7199999999999998 2.7199999999999998 0.0000000000000000 
atom 0.0048425484316234 0.0003800807349463 0.0019247736473340 Si
    velocity 4.8425484316233769 0.3800807349462808 1.9247736473339521
atom 3.4364565723386247 -0.5095576201286899 3.1396900196038717 Si
    velocity -2.5982379735186871 -1.1090877121666727 4.5435313080608442
atom 1.0000275965862393 1.6900192904089069 1.0641917447868534 Si
    velocity -0.4449982576889345 8.4482033276731912 -2.2553581533965938
atom 4.3499778602439623 1.0980565374412854 4.3154719899687155 Si
    velocity -1.7993122004157578 -7.7191963504527985 -4.2129468019982017
