#=======================================================
# FHI-aims file: /home/shuo/Dev/data/Ga2O3/lattice_expansion/lattice_expansion_md/lattice_expansion_300/beta_ga2o3/supercell_8/harm_samp_2/geometry.in.rotated
# Created using the Atomic Simulation Environment (ASE)
# Tue Feb  7 11:03:09 2023
#=======================================================
lattice_vector 6.2558093675975766 1.5478463969383041 -0.0000000000000000 
lattice_vector -6.2558093675975766 1.5478463969383043 0.0000000000000000 
lattice_vector -1.3926154421209622 0.0000000000000000 5.7287254464765391 
atom 1.5441858210953543 1.5478463969383038 1.8014431935471753 Ga
atom -2.9368012632038063 1.5478463969383032 3.9272822529293645 Ga
atom -6.2390784152218473 1.5478463969383038 4.5540687233529260 Ga
atom 4.8464629731133968 1.5478463969383038 1.1746567231236151 Ga
atom -0.4096485517600035 1.5478463969383041 1.4709053286033822 O
atom -0.9829668903484474 1.5478463969383038 4.2578201178731572 O
atom -4.8664581928098292 1.5478463969383043 3.2324374501916751 O
atom 3.4738427507013783 1.5478463969383038 2.4962879962848650 O
atom 2.9723570689093539 1.5478463969383038 5.1003067282757790 O
atom -4.3649725110178048 1.5478463969383036 0.6284187182007610 O
