#=======================================================
# FHI-aims file: geometry.in.supercell
# Created using the Atomic Simulation Environment (ASE)
# Mon Aug 14 11:24:27 2023

# Additional information:
#  Number of atoms:     160
#  Spacegroup:          12
#  supercell:           True
#  supercell_matrix:    [1, -1, 0, 4, 4, 0, 0, 0, 2]
#  Supercell matrix:    [ 1 -1  0  4  4  0  0  0  2]
#=======================================================
lattice_vector 12.5116187351951549 0.0000000000000000 0.0000000000000000 
lattice_vector 0.0000000000000000 12.3827711755064342 0.0000000000000000 
lattice_vector -2.7852308842419244 0.0000000000000000 11.4574508929530783 
atom_frac 0.1584211319059999 0.1250000000000000 0.1572289691990001 Ga
atom_frac 0.6584211319060000 0.2500000000000000 0.1572289691990001 Ga
atom_frac 0.1584211319059998 0.3749999999999999 0.1572289691990001 Ga
atom_frac 0.6584211319060000 0.5000000000000000 0.1572289691990001 Ga
atom_frac 0.1584211319059996 0.6250000000000000 0.1572289691990001 Ga
atom_frac 0.6584211319060000 0.7500000000000000 0.1572289691990001 Ga
atom_frac 0.1584211319059998 0.8750000000000000 0.1572289691990001 Ga
atom_frac 0.6584211319060000 0.0000000000000000 0.1572289691990001 Ga
atom_frac 0.1584211319059999 0.1250000000000000 0.6572289691990000 Ga
atom_frac 0.6584211319060000 0.2500000000000000 0.6572289691990000 Ga
atom_frac 0.1584211319059998 0.3749999999999999 0.6572289691990000 Ga
atom_frac 0.6584211319060000 0.5000000000000000 0.6572289691990000 Ga
atom_frac 0.1584211319059996 0.6250000000000000 0.6572289691990000 Ga
atom_frac 0.6584211319060000 0.7500000000000000 0.6572289691990000 Ga
atom_frac 0.1584211319059998 0.8750000000000000 0.6572289691990000 Ga
atom_frac 0.6584211319060000 0.0000000000000000 0.6572289691990000 Ga
atom_frac 0.8415788680949999 0.1249999999999999 0.3427710308009999 Ga
atom_frac 0.3415788680950000 0.2499999999999999 0.3427710308009999 Ga
atom_frac 0.8415788680949999 0.3749999999999999 0.3427710308009999 Ga
atom_frac 0.3415788680950000 0.4999999999999999 0.3427710308009999 Ga
atom_frac 0.8415788680950000 0.6249999999999999 0.3427710308009999 Ga
atom_frac 0.3415788680949998 0.7500000000000000 0.3427710308009999 Ga
atom_frac 0.8415788680950000 0.8749999999999999 0.3427710308009999 Ga
atom_frac 0.3415788680950000 0.9999999999999999 0.3427710308009999 Ga
atom_frac 0.8415788680949999 0.1249999999999999 0.8427710308009997 Ga
atom_frac 0.3415788680950000 0.2499999999999999 0.8427710308009997 Ga
atom_frac 0.8415788680949999 0.3749999999999999 0.8427710308009997 Ga
atom_frac 0.3415788680950000 0.4999999999999999 0.8427710308009997 Ga
atom_frac 0.8415788680950000 0.6249999999999999 0.8427710308009997 Ga
atom_frac 0.3415788680949998 0.7500000000000000 0.8427710308009997 Ga
atom_frac 0.8415788680950000 0.8749999999999999 0.8427710308009997 Ga
atom_frac 0.3415788680950000 0.9999999999999999 0.8427710308009997 Ga
atom_frac 0.5898201185640001 0.1250000000000000 0.3974766085320001 Ga
atom_frac 0.0898201185640001 0.2500000000000000 0.3974766085320001 Ga
atom_frac 0.5898201185640001 0.3750000000000000 0.3974766085320001 Ga
atom_frac 0.0898201185640000 0.5000000000000000 0.3974766085320001 Ga
atom_frac 0.5898201185640004 0.6250000000000001 0.3974766085320001 Ga
atom_frac 0.0898201185640004 0.7500000000000001 0.3974766085320001 Ga
atom_frac 0.5898201185640004 0.8750000000000001 0.3974766085320001 Ga
atom_frac 0.0898201185640004 0.0000000000000000 0.3974766085320001 Ga
atom_frac 0.5898201185640001 0.1250000000000000 0.8974766085320001 Ga
atom_frac 0.0898201185640001 0.2500000000000000 0.8974766085320001 Ga
atom_frac 0.5898201185640001 0.3750000000000000 0.8974766085320001 Ga
atom_frac 0.0898201185640000 0.5000000000000000 0.8974766085320001 Ga
atom_frac 0.5898201185640004 0.6250000000000001 0.8974766085320001 Ga
atom_frac 0.0898201185640004 0.7500000000000001 0.8974766085320001 Ga
atom_frac 0.5898201185640004 0.8750000000000001 0.8974766085320001 Ga
atom_frac 0.0898201185640004 0.0000000000000000 0.8974766085320001 Ga
atom_frac 0.4101798814370001 0.1250000000000000 0.1025233914680000 Ga
atom_frac 0.9101798814369998 0.2500000000000000 0.1025233914680000 Ga
atom_frac 0.4101798814370001 0.3750000000000000 0.1025233914680000 Ga
atom_frac 0.9101798814369999 0.4999999999999999 0.1025233914680000 Ga
atom_frac 0.4101798814370001 0.6250000000000000 0.1025233914680000 Ga
atom_frac 0.9101798814370002 0.7500000000000000 0.1025233914680000 Ga
atom_frac 0.4101798814370001 0.8750000000000000 0.1025233914680000 Ga
atom_frac 0.9101798814369999 0.0000000000000000 0.1025233914680000 Ga
atom_frac 0.4101798814370001 0.1250000000000000 0.6025233914679999 Ga
atom_frac 0.9101798814369998 0.2500000000000000 0.6025233914679999 Ga
atom_frac 0.4101798814370001 0.3750000000000000 0.6025233914679999 Ga
atom_frac 0.9101798814369999 0.4999999999999999 0.6025233914679999 Ga
atom_frac 0.4101798814370001 0.6250000000000000 0.6025233914679999 Ga
atom_frac 0.9101798814370002 0.7500000000000000 0.6025233914679999 Ga
atom_frac 0.4101798814370001 0.8750000000000000 0.6025233914679999 Ga
atom_frac 0.9101798814369999 0.0000000000000000 0.6025233914679999 Ga
atom_frac 0.9958373771700000 0.1250000000000000 0.1283798064985000 O
atom_frac 0.4958373771700001 0.2500000000000000 0.1283798064985000 O
atom_frac 0.9958373771700000 0.3750000000000000 0.1283798064985000 O
atom_frac 0.4958373771700001 0.5000000000000000 0.1283798064985000 O
atom_frac 0.9958373771700000 0.6250000000000000 0.1283798064985000 O
atom_frac 0.4958373771700001 0.7500000000000000 0.1283798064985000 O
atom_frac 0.9958373771700000 0.8750000000000000 0.1283798064985000 O
atom_frac 0.4958373771699999 0.0000000000000000 0.1283798064985000 O
atom_frac 0.9958373771700000 0.1250000000000000 0.6283798064984999 O
atom_frac 0.4958373771700001 0.2500000000000000 0.6283798064984999 O
atom_frac 0.9958373771700000 0.3750000000000000 0.6283798064984999 O
atom_frac 0.4958373771700001 0.5000000000000000 0.6283798064984999 O
atom_frac 0.9958373771700000 0.6250000000000000 0.6283798064984999 O
atom_frac 0.4958373771700001 0.7500000000000000 0.6283798064984999 O
atom_frac 0.9958373771700000 0.8750000000000000 0.6283798064984999 O
atom_frac 0.4958373771699999 0.0000000000000000 0.6283798064984999 O
atom_frac 0.0041626228309999 0.1250000000000000 0.3716201935015000 O
atom_frac 0.5041626228310001 0.2500000000000000 0.3716201935015000 O
atom_frac 0.0041626228310003 0.3750000000000001 0.3716201935015000 O
atom_frac 0.5041626228310001 0.5000000000000000 0.3716201935015000 O
atom_frac 0.0041626228310001 0.6250000000000000 0.3716201935015000 O
atom_frac 0.5041626228310001 0.7500000000000000 0.3716201935015000 O
atom_frac 0.0041626228310001 0.8750000000000000 0.3716201935015000 O
atom_frac 0.5041626228310001 0.0000000000000000 0.3716201935015000 O
atom_frac 0.0041626228310000 0.1250000000000000 0.8716201935014999 O
atom_frac 0.5041626228310001 0.2500000000000000 0.8716201935014999 O
atom_frac 0.0041626228310003 0.3750000000000001 0.8716201935014999 O
atom_frac 0.5041626228310001 0.5000000000000000 0.8716201935014999 O
atom_frac 0.0041626228310001 0.6250000000000000 0.8716201935014999 O
atom_frac 0.5041626228310001 0.7500000000000000 0.8716201935014999 O
atom_frac 0.0041626228310001 0.8750000000000000 0.8716201935014999 O
atom_frac 0.5041626228310001 0.0000000000000000 0.8716201935014999 O
atom_frac 0.6738492424409999 0.1250000000000000 0.2821253593310001 O
atom_frac 0.1738492424409999 0.2500000000000000 0.2821253593310001 O
atom_frac 0.6738492424409999 0.3750000000000000 0.2821253593310001 O
atom_frac 0.1738492424410001 0.5000000000000000 0.2821253593310001 O
atom_frac 0.6738492424410001 0.6250000000000000 0.2821253593310001 O
atom_frac 0.1738492424410001 0.7500000000000000 0.2821253593310001 O
atom_frac 0.6738492424410001 0.8750000000000000 0.2821253593310001 O
atom_frac 0.1738492424409999 0.0000000000000000 0.2821253593310001 O
atom_frac 0.6738492424409999 0.1250000000000000 0.7821253593309998 O
atom_frac 0.1738492424409999 0.2500000000000000 0.7821253593309998 O
atom_frac 0.6738492424409999 0.3750000000000000 0.7821253593309998 O
atom_frac 0.1738492424410001 0.5000000000000000 0.7821253593309998 O
atom_frac 0.6738492424410001 0.6250000000000000 0.7821253593309998 O
atom_frac 0.1738492424410001 0.7500000000000000 0.7821253593309998 O
atom_frac 0.6738492424410001 0.8750000000000000 0.7821253593309998 O
atom_frac 0.1738492424409999 0.0000000000000000 0.7821253593309998 O
atom_frac 0.3261507575600000 0.1250000000000000 0.2178746406690000 O
atom_frac 0.8261507575600001 0.2500000000000000 0.2178746406690000 O
atom_frac 0.3261507575600000 0.3749999999999999 0.2178746406690000 O
atom_frac 0.8261507575600002 0.5000000000000000 0.2178746406690000 O
atom_frac 0.3261507575599998 0.6250000000000000 0.2178746406690000 O
atom_frac 0.8261507575599998 0.7500000000000000 0.2178746406690000 O
atom_frac 0.3261507575600000 0.8750000000000000 0.2178746406690000 O
atom_frac 0.8261507575599998 0.0000000000000000 0.2178746406690000 O
atom_frac 0.3261507575600000 0.1250000000000000 0.7178746406689999 O
atom_frac 0.8261507575600001 0.2500000000000000 0.7178746406689999 O
atom_frac 0.3261507575600000 0.3749999999999999 0.7178746406689999 O
atom_frac 0.8261507575600002 0.5000000000000000 0.7178746406689999 O
atom_frac 0.3261507575599997 0.6250000000000000 0.7178746406689999 O
atom_frac 0.8261507575599998 0.7500000000000000 0.7178746406689999 O
atom_frac 0.3261507575600000 0.8750000000000000 0.7178746406689999 O
atom_frac 0.8261507575599998 0.0000000000000000 0.7178746406689999 O
atom_frac 0.3366637160910000 0.1250000000000000 0.4451519605825001 O
atom_frac 0.8366637160910002 0.2500000000000001 0.4451519605825001 O
atom_frac 0.3366637160910003 0.3750000000000001 0.4451519605825001 O
atom_frac 0.8366637160910002 0.5000000000000000 0.4451519605825001 O
atom_frac 0.3366637160909995 0.6250000000000000 0.4451519605825001 O
atom_frac 0.8366637160909998 0.7500000000000000 0.4451519605825001 O
atom_frac 0.3366637160909998 0.8750000000000000 0.4451519605825001 O
atom_frac 0.8366637160909998 0.0000000000000000 0.4451519605825001 O
atom_frac 0.3366637160910000 0.1250000000000000 0.9451519605825000 O
atom_frac 0.8366637160910002 0.2500000000000001 0.9451519605825000 O
atom_frac 0.3366637160910003 0.3750000000000001 0.9451519605825000 O
atom_frac 0.8366637160910002 0.5000000000000000 0.9451519605825000 O
atom_frac 0.3366637160909995 0.6250000000000000 0.9451519605825000 O
atom_frac 0.8366637160909998 0.7500000000000000 0.9451519605825000 O
atom_frac 0.3366637160909998 0.8750000000000000 0.9451519605825000 O
atom_frac 0.8366637160909998 0.0000000000000000 0.9451519605825000 O
atom_frac 0.6633362839100003 0.1250000000000000 0.0548480394175000 O
atom_frac 0.1633362839100001 0.2499999999999999 0.0548480394175000 O
atom_frac 0.6633362839099999 0.3749999999999999 0.0548480394175000 O
atom_frac 0.1633362839099999 0.4999999999999999 0.0548480394175000 O
atom_frac 0.6633362839099999 0.6249999999999999 0.0548480394175000 O
atom_frac 0.1633362839099997 0.7500000000000000 0.0548480394175000 O
atom_frac 0.6633362839099999 0.8750000000000000 0.0548480394175000 O
atom_frac 0.1633362839099997 0.0000000000000000 0.0548480394175000 O
atom_frac 0.6633362839100003 0.1250000000000000 0.5548480394174998 O
atom_frac 0.1633362839100001 0.2499999999999999 0.5548480394174998 O
atom_frac 0.6633362839099999 0.3749999999999999 0.5548480394174998 O
atom_frac 0.1633362839099999 0.4999999999999999 0.5548480394174998 O
atom_frac 0.6633362839099999 0.6249999999999999 0.5548480394174998 O
atom_frac 0.1633362839099997 0.7500000000000000 0.5548480394174998 O
atom_frac 0.6633362839099999 0.8750000000000000 0.5548480394174998 O
atom_frac 0.1633362839099997 0.0000000000000000 0.5548480394174998 O
