#=======================================================
# FHI-aims file: geometry.in.supercell
# Created using the Atomic Simulation Environment (ASE)
# Wed Nov 28 09:42:45 2018

# Additional information:
#  Number of atoms:     100
#  Spacegroup:          P6_3mc (186)
#  supercell_matrix:    [4, 1, 0, 2, 4, -1, -1, -1, 2]
#=======================================================
lattice_vector 11.1749612671121881 2.7650858125854723 0.0000000000000000 
lattice_vector -0.0000000019737607 11.0603432503418890 -5.2045121585280043 
lattice_vector -1.5964230377359352 -2.7650858125854723 10.4090243170560086 
atom 0.0000000000000000 0.0000000000000000 0.0000000000000000 Ga
atom 0.0000000000000000 0.0000000000000000 1.9593682934637009 N
atom 7.9821151906534373 2.7650858125854723 1.9593682934637000 N
atom 7.9821151886796775 11.9820385212037301 -2.6022560792640044 Ga
atom 7.9821151906534373 2.7650858125854723 5.2045121585280043 Ga
atom 7.9821151886796766 11.9820385212037301 -0.6428877858003026 N
atom 7.9821151906534382 2.7650858125854718 7.1638804519917052 N
atom 7.9821151906534364 0.9216952708618414 7.8067682377920056 Ga
atom 9.5785382283893714 5.5301716251709445 0.0000000000000000 Ga
atom 7.9821151906534373 0.9216952708618419 9.7661365312557056 N
atom 3.1928460744849900 11.0603432503418873 -3.2451438650643030 N
atom 0.0000000000000000 0.0000000000000000 5.2045121585280043 Ga
atom 0.0000000000000000 0.0000000000000000 7.1638804519917061 N
atom -0.0000000019737609 9.2169527086182601 2.6022560792640004 Ga
atom 1.5964230377359352 2.7650858125854727 0.0000000000000000 Ga
atom 0.0000000000000000 -1.8433905417236305 9.7661365312557056 N
atom 9.5785382283893714 5.5301716251709463 1.9593682934637007 N
atom 9.5785382283893750 3.6867810834473147 2.6022560792640004 Ga
atom 9.5785382283893732 5.5301716251709454 5.2045121585280043 Ga
atom 9.5785382283893714 3.6867810834473156 4.5616243727277013 N
atom 9.5785382283893732 5.5301716251709445 7.1638804519917061 N
atom 9.5785382283893714 3.6867810834473143 7.8067682377920065 Ga
atom 0.0000000000000000 3.6867810834473143 -0.6428877858003031 N
atom 7.9821151896665574 8.2952574377564172 0.0000000000000000 Ga
atom 7.9821151896665565 8.2952574377564190 1.9593682934637020 N
atom 7.9821151896665565 6.4518668960327874 2.6022560792640013 Ga
atom 7.9821151896665565 8.2952574377564190 5.2045121585280052 Ga
atom 7.9821151896665556 6.4518668960327838 4.5616243727277039 N
atom 9.5785382274024933 11.0603432503418961 -3.2451438650643034 N
atom 9.5785382274024915 9.2169527086182583 -2.6022560792640039 Ga
atom 3.1928460764587512 0.0000000000000000 5.2045121585280070 Ga
atom 3.1928460764587512 0.0000000000000000 7.1638804519917070 N
atom 4.7892691141946866 2.7650858125854723 0.0000000000000000 Ga
atom 3.1928460744849909 9.2169527086182601 4.5616243727277004 N
atom 1.5964230377359359 2.7650858125854714 1.9593682934637007 N
atom 1.5964230377359359 0.9216952708618423 2.6022560792640004 Ga
atom 1.5964230377359352 2.7650858125854723 5.2045121585280052 Ga
atom 1.5964230377359354 0.9216952708618419 4.5616243727277022 N
atom 1.5964230377359356 2.7650858125854705 7.1638804519917052 N
atom 1.5964230377359354 0.9216952708618418 7.8067682377920038 Ga
atom 3.1928460754718708 3.6867810834473138 -0.6428877858003028 N
atom 0.0000000000000000 5.5301716251709463 0.0000000000000000 Ga
atom 0.0000000000000000 5.5301716251709472 1.9593682934636996 N
atom 0.0000000000000000 3.6867810834473147 2.6022560792639995 Ga
atom 0.0000000000000000 5.5301716251709472 5.2045121585280052 Ga
atom 0.0000000000000000 3.6867810834473147 4.5616243727277004 N
atom 1.5964230367490562 8.2952574377564190 -3.2451438650643034 N
atom 1.5964230367490564 6.4518668960327874 -2.6022560792640048 Ga
atom 9.5785382274024933 11.0603432503418926 0.0000000000000000 Ga
atom 9.5785382274024951 9.2169527086182583 -0.6428877858003041 N
atom 9.5785382274024933 11.0603432503418908 1.9593682934637005 N
atom 9.5785382274024951 9.2169527086182619 2.6022560792639999 Ga
atom 9.5785382274024933 9.2169527086182583 4.5616243727277022 N
atom -0.0000000019737598 9.2169527086182601 -2.6022560792640039 Ga
atom 6.3856921509437408 11.0603432503418908 0.0000000000000000 Ga
atom 6.3856921529175015 0.0000000000000000 7.1638804519917061 N
atom 7.9821151906534382 2.7650858125854714 0.0000000000000000 Ga
atom 4.7892691141946857 2.7650858125854723 1.9593682934637002 N
atom 4.7892691141946857 0.9216952708618422 2.6022560792639999 Ga
atom 4.7892691141946857 2.7650858125854723 5.2045121585280043 Ga
atom 4.7892691141946857 0.9216952708618419 4.5616243727277013 N
atom 4.7892691141946857 2.7650858125854718 7.1638804519917061 N
atom 4.7892691141946857 0.9216952708618414 7.8067682377920047 Ga
atom 6.3856921519306207 5.5301716251709445 0.0000000000000000 Ga
atom 6.3856921519306207 3.6867810834473143 -0.6428877858003028 N
atom 3.1928460754718704 5.5301716251709454 0.0000000000000000 Ga
atom 3.1928460754718704 5.5301716251709472 1.9593682934637009 N
atom 3.1928460754718713 3.6867810834473151 2.6022560792640004 Ga
atom 3.1928460754718708 5.5301716251709454 5.2045121585280052 Ga
atom 3.1928460754718708 3.6867810834473147 4.5616243727277022 N
atom 4.7892691132078058 8.2952574377564208 -3.2451438650643039 N
atom 3.1928460754718699 3.6867810834473151 7.8067682377920056 Ga
atom 4.7892691132078058 6.4518668960327874 -0.6428877858003036 N
atom 1.5964230367490553 8.2952574377564154 0.0000000000000000 Ga
atom 1.5964230367490551 6.4518668960327856 -0.6428877858003038 N
atom 1.5964230367490548 8.2952574377564172 1.9593682934637011 N
atom 1.5964230367490551 6.4518668960327847 2.6022560792640004 Ga
atom 1.5964230367490548 8.2952574377564190 5.2045121585280043 Ga
atom 1.5964230367490548 6.4518668960327847 4.5616243727277022 N
atom 3.1928460744849900 9.2169527086182583 -2.6022560792640030 Ga
atom -0.0000000019737606 9.2169527086182583 -0.6428877858003050 N
atom 6.3856921519306207 5.5301716251709463 1.9593682934636996 N
atom 6.3856921519306198 3.6867810834473147 2.6022560792640004 Ga
atom 6.3856921519306216 5.5301716251709481 5.2045121585280052 Ga
atom 6.3856921519306198 3.6867810834473147 4.5616243727277013 N
atom 6.3856921519306207 5.5301716251709472 7.1638804519917052 N
atom 6.3856921519306207 3.6867810834473147 7.8067682377920056 Ga
atom 7.9821151896665548 6.4518668960327865 -0.6428877858003037 N
atom 4.7892691132078040 8.2952574377564190 0.0000000000000000 Ga
atom 4.7892691132078049 8.2952574377564172 1.9593682934637024 N
atom 4.7892691132078040 6.4518668960327865 2.6022560792640008 Ga
atom 4.7892691132078040 8.2952574377564154 5.2045121585280043 Ga
atom 4.7892691132078049 6.4518668960327865 4.5616243727277004 N
atom 6.3856921509437399 11.0603432503418926 -3.2451438650643043 N
atom 6.3856921509437390 9.2169527086182583 -2.6022560792640039 Ga
atom 3.1928460744849887 9.2169527086182583 -0.6428877858003035 N
atom 3.1928460744849887 9.2169527086182566 2.6022560792640013 Ga
atom 6.3856921509437417 9.2169527086182566 -0.6428877858003037 N
atom 6.3856921509437425 9.2169527086182548 2.6022560792639999 Ga
atom 6.3856921509437408 9.2169527086182548 4.5616243727277030 N
