#=======================================================
# FHI-aims file: geometry.in
# Created using the Atomic Simulation Environment (ASE)
# Tue Nov 27 12:37:45 2018
#=======================================================
lattice_vector 3.1928460764587507 0.0000000000000000 0.0000000000000000 
lattice_vector -1.5964230387228155 2.7650858125854723 0.0000000000000000 
lattice_vector 0.0000000000000000 0.0000000000000000 5.2045121585280043 
atom 0.0000000000000000 0.0000000000000000 0.0000000000000000 Ga
atom 0.0000000000000000 1.8433905417236303 2.6022560792640039 Ga
atom 0.0000000000000000 0.0000000000000000 1.9593682934637005 N
atom 0.0000000000000000 1.8433905417236303 4.5616243727277048 N
