#=======================================================
# FHI-aims file: geometry.in
# Created using the Atomic Simulation Environment (ASE)
# Thu Jun 20 12:04:25 2019
#=======================================================
lattice_vector 0.0000000000000000 2.0249999999999999 2.0249999999999999 
lattice_vector 2.0249999999999999 0.0000000000000000 2.0249999999999999 
lattice_vector 2.0249999999999999 2.0249999999999999 0.0000000000000000 
atom 0.0000000000000000 0.0000000000000000 0.0000000000000000 Al
