#=======================================================
# FHI-aims file: ./geometry.in
# Created using the Atomic Simulation Environment (ASE)
# Wed Oct  9 15:59:08 2019
#=======================================================
lattice_vector 0.0000000000000000 2.7200000000000002 2.7200000000000002 
lattice_vector 5.4400000000000004 0.0000000000000000 5.4400000000000004 
lattice_vector 2.7200000000000002 2.7200000000000002 0.0000000000000000 
atom 0.0070710678118655 -0.0000000000000000 0.0070710678118655 Si
atom 2.7200000000000002 -0.0000000000000000 2.7200000000000002 Si
atom 1.3600000000000001 1.3600000000000001 1.3600000000000001 Si
atom 4.0800000000000010 1.3600000000000001 4.0800000000000001 Si
