# Ge/A_cF8_227_a.A params=5.76 SG=227 [ANRL doi: 10.1016/j.commatsci.2017.01.017 (part 1), doi: 10.1016/j.commatsci.2018.10.043 (part 2)]
# AFLOW::AIMS BEGIN 
lattice_vector    0.00000000000000   2.88000000000000   2.88000000000000
lattice_vector    2.88000000000000   0.00000000000000   2.88000000000000
lattice_vector    2.88000000000000   2.88000000000000   0.00000000000000
atom_frac    0.12500000000000    0.12500000000000    0.12500000000000  Ge 
atom_frac    0.87500000000000    0.87500000000000    0.87500000000000  Ge 
# AFLOW::AIMS END 
