lattice_vector      6.22749138      1.54203215      0.00048047
lattice_vector     -6.22788051      1.54045817     -0.00083005
lattice_vector     -1.39088776      0.00047177      5.70791575
atom      -6.21023038      1.53660910      4.51813886 Ga
atom       4.82676948      1.53762201      1.15573999 Ga
atom      -2.92460977      1.53695424      3.89792704 Ga
atom       1.54114888      1.53727688      1.77595180 Ga
atom      -4.33978398      1.53640185      0.60512492 O
atom       2.95632311      1.53782927      5.06875392 O
atom      -0.40243496      1.53699553      1.44854174 O
atom      -0.98102593      1.53723559      4.22533710 O
atom       3.46173719      1.53759827      2.46971242 O
atom      -4.84519808      1.53663286      3.20416643 O
