#=======================================================
# FHI-aims file: geometry.in.supercell
# Created using the Atomic Simulation Environment (ASE)
# Wed Nov 28 09:43:03 2018

# Additional information:
#  Number of atoms:     100
#  Spacegroup:          C2/m (12)
#  supercell_matrix:    [1, -1, 0, 5, 5, 0, 0, 0, 1]
#=======================================================
lattice_vector 12.4553718900000003 0.0015739800000001 0.0013105200000000 
lattice_vector -0.0019456499999997 15.4124516000000007 -0.0017479000000000 
lattice_vector -1.3908877600000000 0.0004717700000000 5.7079157499999997 
atom 0.0000000000000000 0.0000000000000000 0.0000000000000000 Ga
atom 9.6441664500000019 15.4139362800000015 2.3437689799999992 Ga
atom 1.8947328500000002 0.0008169100000003 5.0877039300000000 Ga
atom 6.3585458500000014 15.4135911500000002 2.9639807900000008 Ga
atom 0.4795586400000006 0.0002645200000006 1.7949018100000000 O
atom 9.1646078400000022 15.4136717700000005 0.5488671600000001 O
atom 4.4169076600000015 0.0008582000000007 2.6383186300000001 O
atom 3.8363710400000000 15.4135498600000016 5.4133660900000002 O
atom 8.2791341599999999 15.4139125400000019 3.6577414099999994 O
atom -0.0258554599999989 0.0004955300000004 4.3939433200000000 O
atom 3.4182315900000018 1.5419428500000012 2.3446868300000001 Ga
atom 0.1326109899999997 1.5415977200000011 2.9648986400000013 Ga
atom 2.9386729800000015 1.5416783400000003 0.5497850100000008 O
atom 10.0658080700000028 1.5431304100000007 5.4155944600000012 O
atom 2.0531992999999993 1.5419191099999991 3.6586592600000007 O
atom 6.2274913799999991 1.5420321499999994 0.0004804700000012 Ga
atom 8.1222242300000005 1.5428490600000002 5.0881843999999985 Ga
atom 6.7070500200000005 1.5422966700000000 1.7953822799999997 O
atom 10.6443990400000015 1.5428903500000006 2.6387990999999991 O
atom 6.2016359200000002 1.5425276799999998 4.3944237900000012 O
atom -0.0003891299999999 3.0824903199999989 -0.0003495800000000 Ga
atom 9.6457229699999996 3.0839749999999992 2.3451672999999995 Ga
atom 1.8943437200000004 3.0833072300000000 5.0873543500000000 Ga
atom 6.3601023700000008 3.0836298699999998 2.9653791100000007 Ga
atom 0.4791695100000002 3.0827548399999993 1.7945522300000001 O
atom 9.1661643599999998 3.0837104900000005 0.5502654800000003 O
atom 4.4165185300000012 3.0833485200000013 2.6379690500000015 O
atom 3.8379275600000011 3.0835885800000007 5.4147644100000001 O
atom 8.2806906800000011 3.0839512600000001 3.6591397299999997 O
atom -0.0262445900000010 3.0829858500000000 4.3935937400000000 O
atom 3.4178424599999988 4.6244331700000005 2.3443372500000002 Ga
atom 0.1322218599999995 4.6240880400000002 2.9645490600000013 Ga
atom 2.9382838499999995 4.6241686599999978 0.5494354300000008 O
atom 10.0654189399999989 4.6256207300000005 5.4152448800000004 O
atom 2.0528101700000008 4.6244094299999974 3.6583096800000008 O
atom 4.8362144899999997 4.6249942399999995 5.7080466399999992 Ga
atom 8.1218351000000002 4.6253393799999998 5.0878348200000012 Ga
atom 6.7066608900000002 4.6247869899999978 1.7950326999999997 O
atom 10.6440099100000012 4.6253806699999984 2.6384495199999995 O
atom 6.2012467899999981 4.6250180000000007 4.3940742100000003 O
atom -0.0007782599999999 6.1649806399999996 -0.0006991599999999 Ga
atom 9.6453338400000010 6.1664653200000004 2.3448177199999996 Ga
atom 1.8939545900000001 6.1657975500000033 5.0870047700000001 Ga
atom 6.3597132399999987 6.1661201900000018 2.9650295300000011 Ga
atom 0.4787803799999998 6.1652451600000004 1.7942026499999997 O
atom 9.1657752300000013 6.1662008100000012 0.5499159000000002 O
atom 4.4161294000000009 6.1658388399999975 2.6376194700000002 O
atom 3.8375384299999991 6.1660788999999996 5.4144148300000001 O
atom 8.2803015499999990 6.1664415799999990 3.6587901499999997 O
atom -0.0266337199999996 6.1654761700000007 4.3932441600000010 O
atom 3.4174533300000007 7.7069234900000003 2.3439876700000002 Ga
atom 0.1318327299999992 7.7065783600000017 2.9641994800000000 Ga
atom 2.9378947200000010 7.7066589799999976 0.5490858499999991 O
atom 10.0650298100000004 7.7081110500000012 5.4148953000000013 O
atom 2.0524210399999987 7.7068997499999989 3.6579601000000004 O
atom 6.2267131199999994 7.7070127900000021 -0.0002186899999987 Ga
atom 8.1214459699999999 7.7078297000000022 5.0874852399999995 Ga
atom 6.7062717599999990 7.7072773100000020 1.7946831200000000 O
atom 10.6436207800000009 7.7078709900000026 2.6380999399999996 O
atom 6.2008576599999996 7.7075083200000059 4.3937246300000004 O
atom 12.4542044999999995 9.2490449400000010 0.0002617800000001 Ga
atom 9.6449447099999990 9.2489556400000001 2.3444681399999991 Ga
atom 1.8935654600000003 9.2482878700000004 5.0866551899999992 Ga
atom 6.3593241099999993 9.2486105100000007 2.9646799500000007 Ga
atom 0.4783912499999997 9.2477354800000011 1.7938530699999999 O
atom 9.1653860999999992 9.2486911300000010 0.5495663200000003 O
atom 4.4157402700000006 9.2483291600000026 2.6372698900000002 O
atom 3.8371493000000005 9.2485692200000020 5.4140652500000002 O
atom 8.2799124200000005 9.2489319000000005 3.6584405699999998 O
atom -0.0270228500000015 9.2479664900000014 4.3928945800000010 O
atom 3.4170641999999991 10.7894138100000010 2.3436380899999998 Ga
atom 0.1314435999999989 10.7890686799999997 2.9638499000000000 Ga
atom 2.9375055899999989 10.7891493000000001 0.5487362700000009 O
atom 10.0646406799999966 10.7906013699999974 5.4145457199999996 O
atom 2.0520319100000002 10.7893900700000049 3.6576105200000004 O
atom 4.8354362299999991 10.7899748800000026 5.7073474799999993 Ga
atom 8.1210568399999996 10.7903200200000047 5.0871356600000013 Ga
atom 6.7058826299999987 10.7897676300000054 1.7943335400000000 O
atom 10.6432316500000006 10.7903613100000033 2.6377503599999996 O
atom 6.2004685299999984 10.7899986400000039 4.3933750500000004 O
atom 12.4538153699999992 12.3315352599999990 -0.0000877999999998 Ga
atom 9.6445555800000005 12.3314459600000017 2.3441185600000001 Ga
atom 1.8931763299999995 12.3307781900000020 5.0863056099999993 Ga
atom 6.3589349799999990 12.3311008300000022 2.9643303700000008 Ga
atom 0.4780021199999994 12.3302258000000045 1.7935034900000000 O
atom 9.1649969700000007 12.3311814500000025 0.5492167400000003 O
atom 4.4153511400000003 12.3308194800000006 2.6369203100000012 O
atom 3.8367601699999985 12.3310595400000000 5.4137156700000002 O
atom 8.2795232899999984 12.3314222200000057 3.6580909900000007 O
atom -0.0274119800000002 12.3304568100000065 4.3925450000000010 O
atom 3.4166750700000001 13.8719041300000026 2.3432885099999998 Ga
atom 0.1310544699999986 13.8715590000000031 2.9635003199999996 Ga
atom 2.9371164600000004 13.8716396200000034 0.5483866899999992 O
atom 10.0642515499999998 13.8730916899999972 5.4141961400000014 O
atom 2.0516427799999981 13.8718803900000065 3.6572609400000009 O
atom 6.2259348599999988 13.8719934300000052 -0.0009178499999987 Ga
atom 8.1206677099999993 13.8728103400000045 5.0867860800000004 Ga
atom 6.7054934999999984 13.8722579500000069 1.7939839600000000 O
atom 10.6428425200000003 13.8728516300000013 2.6374007799999997 O
atom 6.2000793999999981 13.8724889600000036 4.3930254700000013 O
