#=======================================================
# FHI-aims file: geometry.in.new_supercell
# Created using the Atomic Simulation Environment (ASE)
# Tue Aug 20 19:22:04 2019
#=======================================================
lattice_vector 5.6527723600000002 -7.9941947999999998 0.0000000000000000 
lattice_vector 5.6527723600000002 7.9941947999999998 0.0000000000000000 
lattice_vector 0.0000000000000000 0.0000000000000000 5.6527988599999999 
atom_frac 0.8749999999999998 0.1250000000000001 0.9999884600000009 F
atom_frac 0.3750000000000000 0.6250000000000000 0.9999884600000009 F
atom_frac 0.8749999999999998 0.6250000000000000 0.4999884600000007 F
atom_frac 0.3750000000000000 0.1250000000000000 0.4999884600000007 F
atom_frac 0.6250000000000000 0.3750000000000000 0.0000115400000000 F
atom_frac 0.1249999999999999 0.8750000000000000 0.0000115400000000 F
atom_frac 0.1250000000000000 0.3750000000000000 0.5000115399999991 F
atom_frac 0.6250000000000000 0.8750000000000000 0.5000115399999991 F
atom_frac 0.8750043899999997 0.3749956100000003 0.2499999999999999 F
atom_frac 0.3750043899999997 0.8749956100000003 0.2499999999999999 F
atom_frac 0.8749956100000001 0.3750043899999997 0.7499999999999999 F
atom_frac 0.3749956100000000 0.8750043899999995 0.7499999999999999 F
atom_frac 0.8750043899999997 0.8749956100000003 0.7499999999999999 F
atom_frac 0.3750043899999997 0.3749956100000003 0.7499999999999999 F
atom_frac 0.3749956100000000 0.3750043900000000 0.2499999999999999 F
atom_frac 0.8749956100000000 0.8750043900000000 0.2499999999999999 F
atom_frac 0.1249956100000004 0.6250043899999997 0.7499999999999999 F
atom_frac 0.6249956100000003 0.1250043899999997 0.7499999999999999 F
atom_frac 0.1250043899999998 0.6249956100000003 0.2499999999999999 F
atom_frac 0.6250043899999997 0.1249956100000002 0.2499999999999999 F
atom_frac 0.1249956099999999 0.1250043899999999 0.2499999999999999 F
atom_frac 0.6249956100000000 0.6250043900000000 0.2499999999999999 F
atom_frac 0.6250043899999996 0.6249956100000001 0.7499999999999999 F
atom_frac 0.1250043899999997 0.1249956100000003 0.7499999999999999 F
atom_frac 0.1250000000000000 0.3750000000000000 0.0000044100000000 K
atom_frac 0.6250000000000000 0.8750000000000000 0.0000044100000000 K
atom_frac 0.6250000000000000 0.3750000000000000 0.5000044099999993 K
atom_frac 0.1249999999999999 0.8750000000000000 0.5000044099999993 K
atom_frac 0.8749999999999998 0.6250000000000000 0.9999955900000005 K
atom_frac 0.3750000000000000 0.1250000000000000 0.9999955900000005 K
atom_frac 0.8749999999999998 0.1250000000000001 0.4999955900000004 K
atom_frac 0.3750000000000000 0.6250000000000000 0.4999955900000004 K
atom_frac -0.0000000000000000 0.0000000000000000 0.0000000000000000 Mg
atom_frac 0.5000000000000000 0.5000000000000000 0.0000000000000000 Mg
atom_frac 0.2500000000000000 0.2500000000000000 0.4999999999999999 Mg
atom_frac 0.7500000000000000 0.7500000000000000 0.4999999999999999 Mg
atom_frac 0.7500000000000000 0.2499999999999999 0.0000000000000000 Mg
atom_frac 0.2500000000000000 0.7500000000000000 0.0000000000000000 Mg
atom_frac -0.0000000000000000 0.5000000000000000 0.4999999999999999 Mg
atom_frac 0.5000000000000000 0.0000000000000000 0.4999999999999999 Mg
