#=======================================================
# FHI-aims file: geometry.in.primitive
# Created using the Atomic Simulation Environment (ASE)
# Fri Aug 16 11:03:10 2019

# Additional information:
#  Number of atoms:     20
#=======================================================
lattice_vector 5.6527723600000002 0.0000000000000000 0.0000000000000000 
lattice_vector 0.0000000000000000 7.9941947999999998 0.0000000000000000 
lattice_vector 0.0000000000000000 0.0000000000000000 5.6527988599999999 
atom 0.0000000000000000 1.9985487000000000 5.6527336267011608 F
atom 2.8263861800000001 5.9956461000000001 2.8263341967011599 F
atom 0.0000000000000000 5.9956461000000001 0.0000652332988446 F
atom 2.8263861800000001 1.9985487000000000 2.8264646632988395 F
atom 1.4131930900000000 3.9970272109696601 1.4131997149999997 F
atom 1.4131930900000000 3.9971675890303398 4.2395991449999997 F
atom 4.2395792700000001 7.9941246109696600 4.2395991449999997 F
atom 4.2395792700000001 0.0000701890303440 1.4131997150000000 F
atom 4.2395792700000001 3.9971675890303398 4.2395991449999997 F
atom 4.2395792700000001 3.9970272109696601 1.4131997150000000 F
atom 1.4131930900000000 0.0000701890303440 1.4131997149999997 F
atom 1.4131930900000000 7.9941246109696600 4.2395991449999997 F
atom 2.8263861800000001 1.9985487000000000 0.0000249288429725 K
atom 0.0000000000000000 5.9956461000000001 2.8264243588429689 K
atom 2.8263861800000001 5.9956461000000001 5.6527739311570304 K
atom 0.0000000000000000 1.9985487000000000 2.8263745011570296 K
atom 0.0000000000000000 0.0000000000000000 0.0000000000000000 Mg
atom 2.8263861800000001 0.0000000000000000 2.8263994299999995 Mg
atom 0.0000000000000000 3.9970973999999999 0.0000000000000000 Mg
atom 2.8263861800000001 3.9970973999999999 2.8263994299999995 Mg
