#=======================================================
# FHI-aims file: geometry.in.supercell
# Created using the Atomic Simulation Environment (ASE)
# Fri Aug 16 11:03:10 2019

# Additional information:
#  Number of atoms:     40
#=======================================================
lattice_vector 5.6527723600000002 0.0000000000000000 -5.6527988599999999 
lattice_vector 0.0000000000000000 7.9941947999999998 0.0000000000000000 
lattice_vector 5.6527723600000002 0.0000000000000000 5.6527988599999999 
atom 5.6527723600000002 1.9985487000000000 -0.0000652332988397 F
atom 5.6527723600000002 1.9985487000000000 5.6527336267011599 F
atom 2.8263861800000001 5.9956461000000001 2.8263341967011599 F
atom 8.4791585400000002 5.9956461000000001 2.8263341967011608 F
atom 5.6527723600000002 5.9956461000000001 -5.6527336267011554 F
atom 5.6527723600000002 5.9956461000000001 0.0000652332988445 F
atom 8.4791585400000002 1.9985487000000000 -2.8263341967011608 F
atom 2.8263861800000001 1.9985487000000000 -2.8263341967011608 F
atom 1.4131930900000000 3.9970272109696601 1.4131997149999997 F
atom 7.0659654500000002 3.9970272109696601 1.4131997150000000 F
atom 7.0659654500000002 3.9971675890303398 -1.4131997150000000 F
atom 1.4131930900000003 3.9971675890303398 -1.4131997150000002 F
atom 4.2395792700000001 7.9941246109696600 4.2395991449999997 F
atom 4.2395792700000001 7.9941246109696600 -1.4131997150000000 F
atom 4.2395792700000001 0.0000701890303440 1.4131997150000000 F
atom 4.2395792700000001 0.0000701890303440 -4.2395991449999997 F
atom 4.2395792700000001 3.9971675890303398 4.2395991449999997 F
atom 4.2395792700000001 3.9971675890303398 -1.4131997150000000 F
atom 4.2395792700000001 3.9970272109696601 1.4131997150000000 F
atom 4.2395792700000001 3.9970272109696601 -4.2395991449999997 F
atom 1.4131930900000000 0.0000701890303440 1.4131997149999997 F
atom 7.0659654500000002 0.0000701890303440 1.4131997150000000 F
atom 7.0659654500000002 7.9941246109696600 -1.4131997150000000 F
atom 1.4131930900000003 7.9941246109696600 -1.4131997150000002 F
atom 2.8263861799999996 1.9985487000000000 0.0000249288429725 K
atom 8.4791585400000002 1.9985487000000000 0.0000249288429728 K
atom 5.6527723600000011 5.9956461000000001 -2.8263745011570305 K
atom 5.6527723600000002 5.9956461000000001 2.8264243588429694 K
atom 8.4791585400000002 5.9956461000000001 -0.0000249288429696 K
atom 2.8263861800000005 5.9956461000000001 -0.0000249288429696 K
atom 5.6527723600000002 1.9985487000000000 -2.8264243588429703 K
atom 5.6527723600000002 1.9985487000000000 2.8263745011570296 K
atom 0.0000000000000000 0.0000000000000000 0.0000000000000000 Mg
atom 5.6527723600000002 0.0000000000000000 0.0000000000000000 Mg
atom 2.8263861800000001 0.0000000000000000 2.8263994299999995 Mg
atom 2.8263861800000001 0.0000000000000000 -2.8263994299999999 Mg
atom 0.0000000000000000 3.9970973999999999 0.0000000000000000 Mg
atom 5.6527723600000002 3.9970973999999999 0.0000000000000000 Mg
atom 2.8263861800000001 3.9970973999999999 2.8263994299999995 Mg
atom 2.8263861800000001 3.9970973999999999 -2.8263994299999999 Mg
