#=======================================================
# FHI-aims file: geometry.in.primitive
# Created using the Atomic Simulation Environment (ASE)
# Tue Mar 26 14:54:20 2019
#=======================================================
lattice_vector 0.0000000000000000 2.7130337629099999 2.7130337629099999 
lattice_vector 2.7130337629099999 0.0000000000000000 2.7130337629099999 
lattice_vector 2.7130337629099999 2.7130337629099999 0.0000000000000000 
atom_frac 0.0000000000000000 0.0000000000000000 0.0000000000000000 Si
atom_frac 0.2500000000000000 0.2500000000000000 0.2500000000000000 Si
