#=======================================================
# FHI-aims file: geometry.in.supercell
# Created using the Atomic Simulation Environment (ASE)
# Wed Nov 28 09:42:17 2018

# Additional information:
#  Number of atoms:     100
#  Spacegroup:          Fd-3m (227)
#  supercell_matrix:    [-3, 2, 3, 2, -3, 3, 2, 2, -2]
#=======================================================
lattice_vector 13.6000000000000014 0.0000000000000000 -2.7199999999999998 
lattice_vector 0.0000000000000000 13.6000000000000014 -2.7199999999999998 
lattice_vector 0.0000000000000000 0.0000000000000000 10.8800000000000008 
atom 0.0000000000000000 0.0000000000000000 0.0000000000000000 Si
atom 1.3599999999999994 1.3599999999999994 9.5200000000000031 Si
atom 2.7199999999999989 2.7199999999999989 0.0000000000000000 Si
atom 1.3600000000000030 12.2400000000000038 -1.3600000000000005 Si
atom 2.7200000000000024 0.0000000000000000 2.7199999999999993 Si
atom 2.7199999999999989 10.8799999999999990 8.1600000000000001 Si
atom 10.8800000000000008 2.7199999999999989 8.1600000000000001 Si
atom 12.2400000000000038 4.0800000000000018 6.8000000000000034 Si
atom 0.0000000000000000 5.4400000000000013 0.0000000000000000 Si
atom 1.3599999999999994 6.7999999999999998 -1.3599999999999992 Si
atom 2.7199999999999989 8.1600000000000001 0.0000000000000000 Si
atom 9.5200000000000049 12.2400000000000038 -4.0800000000000001 Si
atom 10.8800000000000026 0.0000000000000000 0.0000000000000000 Si
atom 12.2400000000000038 1.3599999999999994 -1.3600000000000001 Si
atom 0.0000000000000000 2.7199999999999989 2.7199999999999984 Si
atom 1.3599999999999994 4.0800000000000018 1.3599999999999997 Si
atom 2.7199999999999989 5.4400000000000013 2.7199999999999989 Si
atom 12.2400000000000038 12.2400000000000038 -1.3599999999999972 Si
atom 0.0000000000000000 0.0000000000000000 5.4400000000000013 Si
atom 1.3600000000000030 1.3599999999999994 4.0800000000000018 Si
atom 2.7200000000000024 2.7199999999999989 5.4400000000000013 Si
atom 1.3599999999999994 12.2400000000000038 4.0800000000000018 Si
atom 2.7199999999999989 0.0000000000000000 8.1600000000000019 Si
atom 8.1600000000000001 5.4399999999999977 8.1600000000000001 Si
atom 9.5200000000000049 6.7999999999999998 6.8000000000000025 Si
atom 10.8800000000000026 8.1600000000000001 -2.7200000000000006 Si
atom 12.2400000000000038 9.5199999999999996 -4.0799999999999992 Si
atom 0.0000000000000000 10.8799999999999990 0.0000000000000000 Si
atom 4.0800000000000018 12.2400000000000038 6.7999999999999998 Si
atom 5.4400000000000004 0.0000000000000000 0.0000000000000000 Si
atom 6.8000000000000025 1.3599999999999994 -1.3600000000000003 Si
atom 8.1600000000000001 2.7199999999999989 0.0000000000000000 Si
atom 9.5199999999999996 4.0799999999999983 -1.3600000000000003 Si
atom 10.8800000000000008 5.4399999999999977 0.0000000000000000 Si
atom 12.2400000000000038 6.7999999999999998 -1.3599999999999999 Si
atom 0.0000000000000000 8.1600000000000001 2.7199999999999989 Si
atom 1.3599999999999994 9.5199999999999996 1.3599999999999992 Si
atom 2.7199999999999989 10.8799999999999990 2.7199999999999993 Si
atom 6.8000000000000025 12.2400000000000038 -1.3600000000000008 Si
atom 8.1600000000000001 0.0000000000000000 2.7199999999999971 Si
atom 9.5200000000000049 1.3599999999999994 1.3599999999999974 Si
atom 10.8800000000000026 2.7199999999999989 2.7199999999999971 Si
atom 12.2400000000000038 4.0799999999999983 1.3599999999999997 Si
atom 0.0000000000000000 5.4399999999999977 5.4399999999999968 Si
atom 1.3599999999999994 6.7999999999999998 4.0800000000000001 Si
atom 2.7199999999999989 8.1600000000000001 5.4399999999999968 Si
atom 9.5200000000000049 12.2400000000000038 1.3600000000000003 Si
atom 10.8800000000000026 0.0000000000000000 5.4399999999999995 Si
atom 12.2400000000000038 1.3599999999999994 4.0800000000000018 Si
atom 0.0000000000000000 2.7199999999999989 8.1600000000000019 Si
atom 1.3600000000000030 4.0799999999999983 6.7999999999999998 Si
atom 2.7200000000000024 5.4399999999999977 8.1600000000000001 Si
atom 12.2400000000000038 12.2400000000000038 4.0799999999999992 Si
atom 5.4400000000000004 8.1600000000000001 -2.7199999999999998 Si
atom 6.8000000000000025 9.5199999999999996 6.8000000000000034 Si
atom 8.1600000000000001 10.8799999999999990 -2.7199999999999998 Si
atom 4.0800000000000018 4.0800000000000018 -1.3600000000000001 Si
atom 5.4400000000000004 5.4400000000000013 0.0000000000000000 Si
atom 6.8000000000000025 6.7999999999999998 -1.3600000000000003 Si
atom 8.1600000000000001 8.1600000000000001 0.0000000000000000 Si
atom 9.5200000000000049 9.5199999999999996 -1.3599999999999999 Si
atom 10.8800000000000026 10.8799999999999990 0.0000000000000000 Si
atom 4.0800000000000018 1.3599999999999994 1.3600000000000017 Si
atom 5.4400000000000004 2.7199999999999989 2.7200000000000015 Si
atom 6.8000000000000025 4.0800000000000018 1.3600000000000025 Si
atom 8.1600000000000001 5.4400000000000013 2.7200000000000020 Si
atom 9.5199999999999996 6.7999999999999998 1.3600000000000021 Si
atom 10.8800000000000008 8.1600000000000001 2.7199999999999993 Si
atom 12.2400000000000038 9.5199999999999996 1.3600000000000025 Si
atom 0.0000000000000000 10.8799999999999990 5.4400000000000004 Si
atom 4.0800000000000018 12.2400000000000038 1.3600000000000005 Si
atom 5.4400000000000004 0.0000000000000000 5.4400000000000004 Si
atom 6.8000000000000025 1.3599999999999994 4.0800000000000018 Si
atom 8.1600000000000001 2.7199999999999989 5.4400000000000004 Si
atom 9.5200000000000049 4.0800000000000018 4.0800000000000001 Si
atom 10.8800000000000026 5.4400000000000013 5.4400000000000013 Si
atom 12.2400000000000038 6.7999999999999998 4.0800000000000001 Si
atom 0.0000000000000000 8.1600000000000001 8.1600000000000001 Si
atom 1.3599999999999994 9.5199999999999996 6.8000000000000034 Si
atom 6.8000000000000025 12.2400000000000038 4.0800000000000001 Si
atom 8.1600000000000001 0.0000000000000000 8.1600000000000001 Si
atom 9.5200000000000049 1.3599999999999994 6.8000000000000007 Si
atom 4.0800000000000018 9.5200000000000031 -1.3600000000000008 Si
atom 5.4400000000000004 10.8800000000000026 0.0000000000000000 Si
atom 4.0800000000000018 6.7999999999999998 1.3600000000000030 Si
atom 5.4400000000000004 8.1600000000000001 2.7200000000000020 Si
atom 6.8000000000000025 9.5200000000000031 1.3600000000000023 Si
atom 8.1600000000000001 10.8800000000000026 2.7200000000000015 Si
atom 4.0800000000000018 4.0800000000000018 4.0799999999999992 Si
atom 5.4400000000000004 5.4400000000000013 5.4399999999999995 Si
atom 6.8000000000000025 6.7999999999999998 4.0800000000000010 Si
atom 8.1600000000000001 8.1600000000000001 5.4399999999999977 Si
atom 9.5199999999999996 9.5200000000000031 4.0800000000000001 Si
atom 10.8800000000000008 10.8800000000000026 5.4399999999999986 Si
atom 4.0800000000000018 1.3599999999999994 6.8000000000000043 Si
atom 5.4400000000000004 2.7199999999999989 8.1600000000000037 Si
atom 6.8000000000000025 4.0800000000000018 6.8000000000000060 Si
atom 4.0800000000000018 9.5199999999999996 4.0800000000000010 Si
atom 5.4400000000000004 10.8799999999999990 5.4400000000000031 Si
atom 4.0800000000000018 6.7999999999999998 6.7999999999999989 Si
